*Heading
** Job name: O0404 Model name: O0404
** Generated by: Abaqus/CAE 2024.HF11
*Preprint, echo=NO, model=NO, history=NO, contact=NO
**
** PARTS
**
*Part, name="FRP Sample"
*Node
      1,          7.5,           0.,         52.5
      2,          7.5,           2.,         52.5
      3,          7.5,           2.,         57.5
      4,          7.5,           0.,         57.5
      5,           0.,           2.,         52.5
      6,           0.,           2.,         57.5
      7,           0.,           0.,         57.5
      8,           0.,           0.,         52.5
      9,          7.5,           2.,         37.5
     10,          7.5,           0.,         37.5
     11,          7.5,           0.,          7.5
     12,          7.5,           2.,          7.5
     13,           0.,           0.,         37.5
     14,           0.,           0.,          7.5
     15,           0.,           2.,          7.5
     16,           0.,           2.,         37.5
     17,           0.,           2.,           0.
     18,           0.,           0.,           0.
     19,          7.5,           2.,           0.
     20,          7.5,           0.,           0.
     21,          7.5,           2.,   53.2142868
     22,          7.5,           2.,   53.9285698
     23,          7.5,           2.,   54.6428566
     24,          7.5,           2.,   55.3571434
     25,          7.5,           2.,   56.0714302
     26,          7.5,           2.,   56.7857132
     27,          7.5,           0.,   56.7857132
     28,          7.5,           0.,   56.0714302
     29,          7.5,           0.,   55.3571434
     30,          7.5,           0.,   54.6428566
     31,          7.5,           0.,   53.9285698
     32,          7.5,           0.,   53.2142868
     33,           0.,           2.,   56.7857132
     34,           0.,           2.,   56.0714302
     35,           0.,           2.,   55.3571434
     36,           0.,           2.,   54.6428566
     37,           0.,           2.,   53.9285698
     38,           0.,           2.,   53.2142868
     39,           0.,           0.,   53.2142868
     40,           0.,           0.,   53.9285698
     41,           0.,           0.,   54.6428566
     42,           0.,           0.,   55.3571434
     43,           0.,           0.,   56.0714302
     44,           0.,           0.,   56.7857132
     45,         6.75,           0.,         57.5
     46,           6.,           0.,         57.5
     47,         5.25,           0.,         57.5
     48,          4.5,           0.,         57.5
     49,         3.75,           0.,         57.5
     50,           3.,           0.,         57.5
     51,         2.25,           0.,         57.5
     52,          1.5,           0.,         57.5
     53,         0.75,           0.,         57.5
     54,         0.75,           0.,         52.5
     55,          1.5,           0.,         52.5
     56,         2.25,           0.,         52.5
     57,           3.,           0.,         52.5
     58,         3.75,           0.,         52.5
     59,          4.5,           0.,         52.5
     60,         5.25,           0.,         52.5
     61,           6.,           0.,         52.5
     62,         6.75,           0.,         52.5
     63,         0.75,           2.,         57.5
     64,          1.5,           2.,         57.5
     65,         2.25,           2.,         57.5
     66,           3.,           2.,         57.5
     67,         3.75,           2.,         57.5
     68,          4.5,           2.,         57.5
     69,         5.25,           2.,         57.5
     70,           6.,           2.,         57.5
     71,         6.75,           2.,         57.5
     72,         6.75,           2.,         52.5
     73,           6.,           2.,         52.5
     74,         5.25,           2.,         52.5
     75,          4.5,           2.,         52.5
     76,         3.75,           2.,         52.5
     77,           3.,           2.,         52.5
     78,         2.25,           2.,         52.5
     79,          1.5,           2.,         52.5
     80,         0.75,           2.,         52.5
     81,          7.5,           0.,        36.25
     82,          7.5,           0.,          35.
     83,          7.5,           0.,        33.75
     84,          7.5,           0.,         32.5
     85,          7.5,           0.,        31.25
     86,          7.5,           0.,          30.
     87,          7.5,           0.,        28.75
     88,          7.5,           0.,         27.5
     89,          7.5,           0.,        26.25
     90,          7.5,           0.,          25.
     91,          7.5,           0.,        23.75
     92,          7.5,           0.,         22.5
     93,          7.5,           0.,        21.25
     94,          7.5,           0.,          20.
     95,          7.5,           0.,        18.75
     96,          7.5,           0.,         17.5
     97,          7.5,           0.,        16.25
     98,          7.5,           0.,          15.
     99,          7.5,           0.,        13.75
    100,          7.5,           0.,         12.5
    101,          7.5,           0.,        11.25
    102,          7.5,           0.,          10.
    103,          7.5,           0.,         8.75
    104,          7.5,           2.,         8.75
    105,          7.5,           2.,          10.
    106,          7.5,           2.,        11.25
    107,          7.5,           2.,         12.5
    108,          7.5,           2.,        13.75
    109,          7.5,           2.,          15.
    110,          7.5,           2.,        16.25
    111,          7.5,           2.,         17.5
    112,          7.5,           2.,        18.75
    113,          7.5,           2.,          20.
    114,          7.5,           2.,        21.25
    115,          7.5,           2.,         22.5
    116,          7.5,           2.,        23.75
    117,          7.5,           2.,          25.
    118,          7.5,           2.,        26.25
    119,          7.5,           2.,         27.5
    120,          7.5,           2.,        28.75
    121,          7.5,           2.,          30.
    122,          7.5,           2.,        31.25
    123,          7.5,           2.,         32.5
    124,          7.5,           2.,        33.75
    125,          7.5,           2.,          35.
    126,          7.5,           2.,        36.25
    127,           0.,           0.,         8.75
    128,           0.,           0.,          10.
    129,           0.,           0.,        11.25
    130,           0.,           0.,         12.5
    131,           0.,           0.,        13.75
    132,           0.,           0.,          15.
    133,           0.,           0.,        16.25
    134,           0.,           0.,         17.5
    135,           0.,           0.,        18.75
    136,           0.,           0.,          20.
    137,           0.,           0.,        21.25
    138,           0.,           0.,         22.5
    139,           0.,           0.,        23.75
    140,           0.,           0.,          25.
    141,           0.,           0.,        26.25
    142,           0.,           0.,         27.5
    143,           0.,           0.,        28.75
    144,           0.,           0.,          30.
    145,           0.,           0.,        31.25
    146,           0.,           0.,         32.5
    147,           0.,           0.,        33.75
    148,           0.,           0.,          35.
    149,           0.,           0.,        36.25
    150,           0.,           2.,        36.25
    151,           0.,           2.,          35.
    152,           0.,           2.,        33.75
    153,           0.,           2.,         32.5
    154,           0.,           2.,        31.25
    155,           0.,           2.,          30.
    156,           0.,           2.,        28.75
    157,           0.,           2.,         27.5
    158,           0.,           2.,        26.25
    159,           0.,           2.,          25.
    160,           0.,           2.,        23.75
    161,           0.,           2.,         22.5
    162,           0.,           2.,        21.25
    163,           0.,           2.,          20.
    164,           0.,           2.,        18.75
    165,           0.,           2.,         17.5
    166,           0.,           2.,        16.25
    167,           0.,           2.,          15.
    168,           0.,           2.,        13.75
    169,           0.,           2.,         12.5
    170,           0.,           2.,        11.25
    171,           0.,           2.,          10.
    172,           0.,           2.,         8.75
    173,         6.25,           2.,          7.5
    174,           5.,           2.,          7.5
    175,         3.75,           2.,          7.5
    176,          2.5,           2.,          7.5
    177,         1.25,           2.,          7.5
    178,   1.37821317,           2.,         37.5
    179,     2.582026,           2.,         37.5
    180,   3.73661518,           2.,         37.5
    181,   4.89884138,           2.,         37.5
    182,   6.11689663,           2.,         37.5
    183,         1.25,           0.,          7.5
    184,          2.5,           0.,          7.5
    185,         3.75,           0.,          7.5
    186,           5.,           0.,          7.5
    187,         6.25,           0.,          7.5
    188,   6.11689663,           0.,         37.5
    189,   4.89884138,           0.,         37.5
    190,   3.73661518,           0.,         37.5
    191,     2.582026,           0.,         37.5
    192,   1.37821317,           0.,         37.5
    193,           0.,           2.,         6.25
    194,           0.,           2.,           5.
    195,           0.,           2.,         3.75
    196,           0.,           2.,          2.5
    197,           0.,           2.,         1.25
    198,           0.,           0.,         1.25
    199,           0.,           0.,          2.5
    200,           0.,           0.,         3.75
    201,           0.,           0.,           5.
    202,           0.,           0.,         6.25
    203,          7.5,           2.,         1.25
    204,          7.5,           2.,          2.5
    205,          7.5,           2.,         3.75
    206,          7.5,           2.,           5.
    207,          7.5,           2.,         6.25
    208,          7.5,           0.,         6.25
    209,          7.5,           0.,           5.
    210,          7.5,           0.,         3.75
    211,          7.5,           0.,          2.5
    212,          7.5,           0.,         1.25
    213,         1.25,           0.,           0.
    214,          2.5,           0.,           0.
    215,         3.75,           0.,           0.
    216,           5.,           0.,           0.
    217,         6.25,           0.,           0.
    218,         6.25,           2.,           0.
    219,           5.,           2.,           0.
    220,         3.75,           2.,           0.
    221,          2.5,           2.,           0.
    222,         1.25,           2.,           0.
    223,          7.5,           2.,        51.75
    224,          7.5,           2.,   50.9701195
    225,          7.5,           2.,   50.1591644
    226,          7.5,           2.,   49.3159027
    227,          7.5,           2.,    48.439045
    228,          7.5,           2.,   47.5272522
    229,          7.5,           2.,   46.5791321
    230,          7.5,           2.,    45.593235
    231,          7.5,           2.,   44.5680618
    232,          7.5,           2.,   43.5020409
    233,          7.5,           2.,   42.3935509
    234,          7.5,           2.,   41.2408943
    235,          7.5,           2.,   40.0423164
    236,          7.5,           2.,   38.7959862
    237,           0.,           2.,   38.7959862
    238,           0.,           2.,   40.0423164
    239,           0.,           2.,   41.2408943
    240,           0.,           2.,   42.3935509
    241,           0.,           2.,   43.5020409
    242,           0.,           2.,   44.5680618
    243,           0.,           2.,    45.593235
    244,           0.,           2.,   46.5791321
    245,           0.,           2.,   47.5272522
    246,           0.,           2.,   48.4390488
    247,           0.,           2.,   49.3159065
    248,           0.,           2.,   50.1591682
    249,           0.,           2.,   50.9701195
    250,           0.,           2.,        51.75
    251,           0.,           0.,        51.75
    252,           0.,           0.,   50.9701195
    253,           0.,           0.,   50.1591682
    254,           0.,           0.,   49.3159065
    255,           0.,           0.,   48.4390488
    256,           0.,           0.,   47.5272522
    257,           0.,           0.,   46.5791321
    258,           0.,           0.,    45.593235
    259,           0.,           0.,   44.5680618
    260,           0.,           0.,   43.5020409
    261,           0.,           0.,   42.3935509
    262,           0.,           0.,   41.2408943
    263,           0.,           0.,   40.0423164
    264,           0.,           0.,   38.7959862
    265,          7.5,           0.,   38.7959862
    266,          7.5,           0.,   40.0423164
    267,          7.5,           0.,   41.2408943
    268,          7.5,           0.,   42.3935509
    269,          7.5,           0.,   43.5020409
    270,          7.5,           0.,   44.5680618
    271,          7.5,           0.,    45.593235
    272,          7.5,           0.,   46.5791321
    273,          7.5,           0.,   47.5272522
    274,          7.5,           0.,    48.439045
    275,          7.5,           0.,   49.3159027
    276,          7.5,           0.,   50.1591644
    277,          7.5,           0.,   50.9701195
    278,          7.5,           0.,        51.75
    279,         6.75,           0.,   53.2142868
    280,         6.75,           0.,   53.9285698
    281,         6.75,           0.,   54.6428566
    282,         6.75,           0.,   55.3571434
    283,         6.75,           0.,   56.0714302
    284,         6.75,           0.,   56.7857132
    285,           6.,           0.,   53.2142868
    286,           6.,           0.,   53.9285698
    287,           6.,           0.,   54.6428566
    288,           6.,           0.,   55.3571434
    289,           6.,           0.,   56.0714302
    290,           6.,           0.,   56.7857132
    291,         5.25,           0.,   53.2142868
    292,         5.25,           0.,   53.9285698
    293,         5.25,           0.,   54.6428566
    294,         5.25,           0.,   55.3571434
    295,         5.25,           0.,   56.0714302
    296,         5.25,           0.,   56.7857132
    297,          4.5,           0.,   53.2142868
    298,          4.5,           0.,   53.9285698
    299,          4.5,           0.,   54.6428566
    300,          4.5,           0.,   55.3571434
    301,          4.5,           0.,   56.0714302
    302,          4.5,           0.,   56.7857132
    303,         3.75,           0.,   53.2142868
    304,         3.75,           0.,   53.9285698
    305,         3.75,           0.,   54.6428566
    306,         3.75,           0.,   55.3571434
    307,         3.75,           0.,   56.0714302
    308,         3.75,           0.,   56.7857132
    309,           3.,           0.,   53.2142868
    310,           3.,           0.,   53.9285698
    311,           3.,           0.,   54.6428566
    312,           3.,           0.,   55.3571434
    313,           3.,           0.,   56.0714302
    314,           3.,           0.,   56.7857132
    315,         2.25,           0.,   53.2142868
    316,         2.25,           0.,   53.9285698
    317,         2.25,           0.,   54.6428566
    318,         2.25,           0.,   55.3571434
    319,         2.25,           0.,   56.0714302
    320,         2.25,           0.,   56.7857132
    321,          1.5,           0.,   53.2142868
    322,          1.5,           0.,   53.9285698
    323,          1.5,           0.,   54.6428566
    324,          1.5,           0.,   55.3571434
    325,          1.5,           0.,   56.0714302
    326,          1.5,           0.,   56.7857132
    327,         0.75,           0.,   53.2142868
    328,         0.75,           0.,   53.9285698
    329,         0.75,           0.,   54.6428566
    330,         0.75,           0.,   55.3571434
    331,         0.75,           0.,   56.0714302
    332,         0.75,           0.,   56.7857132
    333,         6.75,           2.,   53.2142868
    334,         6.75,           2.,   53.9285698
    335,         6.75,           2.,   54.6428566
    336,         6.75,           2.,   55.3571434
    337,         6.75,           2.,   56.0714302
    338,         6.75,           2.,   56.7857132
    339,           6.,           2.,   53.2142868
    340,           6.,           2.,   53.9285698
    341,           6.,           2.,   54.6428566
    342,           6.,           2.,   55.3571434
    343,           6.,           2.,   56.0714302
    344,           6.,           2.,   56.7857132
    345,         5.25,           2.,   53.2142868
    346,         5.25,           2.,   53.9285698
    347,         5.25,           2.,   54.6428566
    348,         5.25,           2.,   55.3571434
    349,         5.25,           2.,   56.0714302
    350,         5.25,           2.,   56.7857132
    351,          4.5,           2.,   53.2142868
    352,          4.5,           2.,   53.9285698
    353,          4.5,           2.,   54.6428566
    354,          4.5,           2.,   55.3571434
    355,          4.5,           2.,   56.0714302
    356,          4.5,           2.,   56.7857132
    357,         3.75,           2.,   53.2142868
    358,         3.75,           2.,   53.9285698
    359,         3.75,           2.,   54.6428566
    360,         3.75,           2.,   55.3571434
    361,         3.75,           2.,   56.0714302
    362,         3.75,           2.,   56.7857132
    363,           3.,           2.,   53.2142868
    364,           3.,           2.,   53.9285698
    365,           3.,           2.,   54.6428566
    366,           3.,           2.,   55.3571434
    367,           3.,           2.,   56.0714302
    368,           3.,           2.,   56.7857132
    369,         2.25,           2.,   53.2142868
    370,         2.25,           2.,   53.9285698
    371,         2.25,           2.,   54.6428566
    372,         2.25,           2.,   55.3571434
    373,         2.25,           2.,   56.0714302
    374,         2.25,           2.,   56.7857132
    375,          1.5,           2.,   53.2142868
    376,          1.5,           2.,   53.9285698
    377,          1.5,           2.,   54.6428566
    378,          1.5,           2.,   55.3571434
    379,          1.5,           2.,   56.0714302
    380,          1.5,           2.,   56.7857132
    381,         0.75,           2.,   53.2142868
    382,         0.75,           2.,   53.9285698
    383,         0.75,           2.,   54.6428566
    384,         0.75,           2.,   55.3571434
    385,         0.75,           2.,   56.0714302
    386,         0.75,           2.,   56.7857132
    387,         6.25,           2.,        36.25
    388,         6.25,           2.,          35.
    389,         6.25,           2.,        33.75
    390,         6.25,           2.,         32.5
    391,         6.25,           2.,        31.25
    392,         6.25,           2.,          30.
    393,         6.25,           2.,        28.75
    394,         6.25,           2.,         27.5
    395,         6.25,           2.,        26.25
    396,         6.25,           2.,          25.
    397,         6.25,           2.,        23.75
    398,         6.25,           2.,         22.5
    399,         6.25,           2.,        21.25
    400,         6.25,           2.,          20.
    401,         6.25,           2.,        18.75
    402,         6.25,           2.,         17.5
    403,         6.25,           2.,        16.25
    404,         6.25,           2.,          15.
    405,         6.25,           2.,        13.75
    406,         6.25,           2.,         12.5
    407,         6.25,           2.,        11.25
    408,         6.25,           2.,          10.
    409,         6.25,           2.,         8.75
    410,           5.,           2.,        36.25
    411,           5.,           2.,          35.
    412,           5.,           2.,        33.75
    413,           5.,           2.,         32.5
    414,           5.,           2.,        31.25
    415,           5.,           2.,          30.
    416,           5.,           2.,        28.75
    417,           5.,           2.,         27.5
    418,           5.,           2.,        26.25
    419,           5.,           2.,          25.
    420,           5.,           2.,        23.75
    421,           5.,           2.,         22.5
    422,           5.,           2.,        21.25
    423,           5.,           2.,          20.
    424,           5.,           2.,        18.75
    425,           5.,           2.,         17.5
    426,           5.,           2.,        16.25
    427,           5.,           2.,          15.
    428,           5.,           2.,        13.75
    429,           5.,           2.,         12.5
    430,           5.,           2.,        11.25
    431,           5.,           2.,          10.
    432,           5.,           2.,         8.75
    433,         3.75,           2.,        36.25
    434,         3.75,           2.,          35.
    435,         3.75,           2.,        33.75
    436,         3.75,           2.,         32.5
    437,         3.75,           2.,        31.25
    438,         3.75,           2.,          30.
    439,         3.75,           2.,        28.75
    440,         3.75,           2.,         27.5
    441,         3.75,           2.,        26.25
    442,         3.75,           2.,          25.
    443,         3.75,           2.,        23.75
    444,         3.75,           2.,         22.5
    445,         3.75,           2.,        21.25
    446,         3.75,           2.,          20.
    447,         3.75,           2.,        18.75
    448,         3.75,           2.,         17.5
    449,         3.75,           2.,        16.25
    450,         3.75,           2.,          15.
    451,         3.75,           2.,        13.75
    452,         3.75,           2.,         12.5
    453,         3.75,           2.,        11.25
    454,         3.75,           2.,          10.
    455,         3.75,           2.,         8.75
    456,          2.5,           2.,        36.25
    457,          2.5,           2.,          35.
    458,          2.5,           2.,        33.75
    459,          2.5,           2.,         32.5
    460,          2.5,           2.,        31.25
    461,          2.5,           2.,          30.
    462,          2.5,           2.,        28.75
    463,          2.5,           2.,         27.5
    464,          2.5,           2.,        26.25
    465,          2.5,           2.,          25.
    466,          2.5,           2.,        23.75
    467,          2.5,           2.,         22.5
    468,          2.5,           2.,        21.25
    469,          2.5,           2.,          20.
    470,          2.5,           2.,        18.75
    471,          2.5,           2.,         17.5
    472,          2.5,           2.,        16.25
    473,          2.5,           2.,          15.
    474,          2.5,           2.,        13.75
    475,          2.5,           2.,         12.5
    476,          2.5,           2.,        11.25
    477,          2.5,           2.,          10.
    478,          2.5,           2.,         8.75
    479,         1.25,           2.,        36.25
    480,         1.25,           2.,          35.
    481,         1.25,           2.,        33.75
    482,         1.25,           2.,         32.5
    483,         1.25,           2.,        31.25
    484,         1.25,           2.,          30.
    485,         1.25,           2.,        28.75
    486,         1.25,           2.,         27.5
    487,         1.25,           2.,        26.25
    488,         1.25,           2.,          25.
    489,         1.25,           2.,        23.75
    490,         1.25,           2.,         22.5
    491,         1.25,           2.,        21.25
    492,         1.25,           2.,          20.
    493,         1.25,           2.,        18.75
    494,         1.25,           2.,         17.5
    495,         1.25,           2.,        16.25
    496,         1.25,           2.,          15.
    497,         1.25,           2.,        13.75
    498,         1.25,           2.,         12.5
    499,         1.25,           2.,        11.25
    500,         1.25,           2.,          10.
    501,         1.25,           2.,         8.75
    502,         6.25,           0.,        36.25
    503,         6.25,           0.,          35.
    504,         6.25,           0.,        33.75
    505,         6.25,           0.,         32.5
    506,         6.25,           0.,        31.25
    507,         6.25,           0.,          30.
    508,         6.25,           0.,        28.75
    509,         6.25,           0.,         27.5
    510,         6.25,           0.,        26.25
    511,         6.25,           0.,          25.
    512,         6.25,           0.,        23.75
    513,         6.25,           0.,         22.5
    514,         6.25,           0.,        21.25
    515,         6.25,           0.,          20.
    516,         6.25,           0.,        18.75
    517,         6.25,           0.,         17.5
    518,         6.25,           0.,        16.25
    519,         6.25,           0.,          15.
    520,         6.25,           0.,        13.75
    521,         6.25,           0.,         12.5
    522,         6.25,           0.,        11.25
    523,         6.25,           0.,          10.
    524,         6.25,           0.,         8.75
    525,           5.,           0.,        36.25
    526,           5.,           0.,          35.
    527,           5.,           0.,        33.75
    528,           5.,           0.,         32.5
    529,           5.,           0.,        31.25
    530,           5.,           0.,          30.
    531,           5.,           0.,        28.75
    532,           5.,           0.,         27.5
    533,           5.,           0.,        26.25
    534,           5.,           0.,          25.
    535,           5.,           0.,        23.75
    536,           5.,           0.,         22.5
    537,           5.,           0.,        21.25
    538,           5.,           0.,          20.
    539,           5.,           0.,        18.75
    540,           5.,           0.,         17.5
    541,           5.,           0.,        16.25
    542,           5.,           0.,          15.
    543,           5.,           0.,        13.75
    544,           5.,           0.,         12.5
    545,           5.,           0.,        11.25
    546,           5.,           0.,          10.
    547,           5.,           0.,         8.75
    548,         3.75,           0.,        36.25
    549,         3.75,           0.,          35.
    550,         3.75,           0.,        33.75
    551,         3.75,           0.,         32.5
    552,         3.75,           0.,        31.25
    553,         3.75,           0.,          30.
    554,         3.75,           0.,        28.75
    555,         3.75,           0.,         27.5
    556,         3.75,           0.,        26.25
    557,         3.75,           0.,          25.
    558,         3.75,           0.,        23.75
    559,         3.75,           0.,         22.5
    560,         3.75,           0.,        21.25
    561,         3.75,           0.,          20.
    562,         3.75,           0.,        18.75
    563,         3.75,           0.,         17.5
    564,         3.75,           0.,        16.25
    565,         3.75,           0.,          15.
    566,         3.75,           0.,        13.75
    567,         3.75,           0.,         12.5
    568,         3.75,           0.,        11.25
    569,         3.75,           0.,          10.
    570,         3.75,           0.,         8.75
    571,          2.5,           0.,        36.25
    572,          2.5,           0.,          35.
    573,          2.5,           0.,        33.75
    574,          2.5,           0.,         32.5
    575,          2.5,           0.,        31.25
    576,          2.5,           0.,          30.
    577,          2.5,           0.,        28.75
    578,          2.5,           0.,         27.5
    579,          2.5,           0.,        26.25
    580,          2.5,           0.,          25.
    581,          2.5,           0.,        23.75
    582,          2.5,           0.,         22.5
    583,          2.5,           0.,        21.25
    584,          2.5,           0.,          20.
    585,          2.5,           0.,        18.75
    586,          2.5,           0.,         17.5
    587,          2.5,           0.,        16.25
    588,          2.5,           0.,          15.
    589,          2.5,           0.,        13.75
    590,          2.5,           0.,         12.5
    591,          2.5,           0.,        11.25
    592,          2.5,           0.,          10.
    593,          2.5,           0.,         8.75
    594,         1.25,           0.,        36.25
    595,         1.25,           0.,          35.
    596,         1.25,           0.,        33.75
    597,         1.25,           0.,         32.5
    598,         1.25,           0.,        31.25
    599,         1.25,           0.,          30.
    600,         1.25,           0.,        28.75
    601,         1.25,           0.,         27.5
    602,         1.25,           0.,        26.25
    603,         1.25,           0.,          25.
    604,         1.25,           0.,        23.75
    605,         1.25,           0.,         22.5
    606,         1.25,           0.,        21.25
    607,         1.25,           0.,          20.
    608,         1.25,           0.,        18.75
    609,         1.25,           0.,         17.5
    610,         1.25,           0.,        16.25
    611,         1.25,           0.,          15.
    612,         1.25,           0.,        13.75
    613,         1.25,           0.,         12.5
    614,         1.25,           0.,        11.25
    615,         1.25,           0.,          10.
    616,         1.25,           0.,         8.75
    617,         1.25,           0.,         6.25
    618,         1.25,           0.,           5.
    619,         1.25,           0.,         3.75
    620,         1.25,           0.,          2.5
    621,         1.25,           0.,         1.25
    622,          2.5,           0.,         6.25
    623,          2.5,           0.,           5.
    624,          2.5,           0.,         3.75
    625,          2.5,           0.,          2.5
    626,          2.5,           0.,         1.25
    627,         3.75,           0.,         6.25
    628,         3.75,           0.,           5.
    629,         3.75,           0.,         3.75
    630,         3.75,           0.,          2.5
    631,         3.75,           0.,         1.25
    632,           5.,           0.,         6.25
    633,           5.,           0.,           5.
    634,           5.,           0.,         3.75
    635,           5.,           0.,          2.5
    636,           5.,           0.,         1.25
    637,         6.25,           0.,         6.25
    638,         6.25,           0.,           5.
    639,         6.25,           0.,         3.75
    640,         6.25,           0.,          2.5
    641,         6.25,           0.,         1.25
    642,         1.25,           2.,         6.25
    643,         1.25,           2.,           5.
    644,         1.25,           2.,         3.75
    645,         1.25,           2.,          2.5
    646,         1.25,           2.,         1.25
    647,          2.5,           2.,         6.25
    648,          2.5,           2.,           5.
    649,          2.5,           2.,         3.75
    650,          2.5,           2.,          2.5
    651,          2.5,           2.,         1.25
    652,         3.75,           2.,         6.25
    653,         3.75,           2.,           5.
    654,         3.75,           2.,         3.75
    655,         3.75,           2.,          2.5
    656,         3.75,           2.,         1.25
    657,           5.,           2.,         6.25
    658,           5.,           2.,           5.
    659,           5.,           2.,         3.75
    660,           5.,           2.,          2.5
    661,           5.,           2.,         1.25
    662,         6.25,           2.,         6.25
    663,         6.25,           2.,           5.
    664,         6.25,           2.,         3.75
    665,         6.25,           2.,          2.5
    666,         6.25,           2.,         1.25
    667,    1.5625751,           2.,   39.2802658
    668,   5.93979454,           2.,   39.2804146
    669,          1.5,           2.,   51.6497726
    670,          1.5,           2.,   50.7973518
    671,          1.5,           2.,   49.9380951
    672,          1.5,           2.,   49.0697021
    673,          1.5,           2.,   48.1909637
    674,          1.5,           2.,   47.3011551
    675,          1.5,           2.,   46.3996964
    676,          1.5,           2.,   45.4860954
    677,          1.5,           2.,    44.559845
    678,          1.5,           2.,     43.62043
    679,          1.5,           2.,   42.6673355
    680,          1.5,           2.,   41.7000351
    681,    1.5065105,           2.,   40.7449989
    682,   1.52867889,           2.,   39.8836441
    683,   1.06254673,           2.,   38.6734772
    684,           6.,           2.,   51.6498032
    685,           6.,           2.,   50.7974281
    686,           6.,           2.,   49.9382286
    687,           6.,           2.,   49.0698967
    688,           6.,           2.,   48.1912117
    689,           6.,           2.,   47.3014297
    690,           6.,           2.,   46.3999786
    691,           6.,           2.,   45.4863434
    692,           6.,           2.,   44.5600281
    693,           6.,           2.,   43.6205215
    694,           6.,           2.,   42.6672897
    695,           6.,           2.,     41.69981
    696,    5.9946394,           2.,    40.744606
    697,   5.97276306,           2.,   39.8833199
    698,   2.13165569,           2.,   39.2631721
    699,   2.90057468,           2.,   39.2576218
    700,   3.74047518,           2.,   39.2572556
    701,   4.58774614,           2.,   39.2594223
    702,   5.36322737,           2.,    39.263031
    703,    6.4365325,           2.,   38.6736794
    704,         0.75,           2.,   51.6910095
    705,         0.75,           2.,   50.8708267
    706,         0.75,           2.,   50.0337181
    707,         0.75,           2.,   49.1770248
    708,         0.75,           2.,    48.299202
    709,         0.75,           2.,    47.399128
    710,         0.75,           2.,   46.4758034
    711,         0.75,           2.,   45.5282593
    712,         0.75,           2.,   44.5555191
    713,         0.75,           2.,    43.556572
    714,         0.75,           2.,   42.5303764
    715,   0.75390625,           2.,   41.4801216
    716,  0.773200512,           2.,   40.4306412
    717,  0.841106653,           2.,   39.4459381
    718,         2.25,           2.,    51.630806
    719,           3.,           2.,   51.6224251
    720,         3.75,           2.,    51.619297
    721,          4.5,           2.,   51.6207657
    722,         5.25,           2.,   51.6310501
    723,         2.25,           2.,   50.7620239
    724,           3.,           2.,    50.745575
    725,         3.75,           2.,   50.7392807
    726,          4.5,           2.,   50.7425613
    727,         5.25,           2.,   50.7626266
    728,         2.25,           2.,   49.8908844
    729,           3.,           2.,   49.8680992
    730,         3.75,           2.,   49.8592224
    731,          4.5,           2.,   49.8641281
    732,         5.25,           2.,   49.8918839
    733,         2.25,           2.,   49.0158043
    734,           3.,           2.,   48.9890976
    735,         3.75,           2.,   48.9785576
    736,          4.5,           2.,    48.984623
    737,         5.25,           2.,   49.0171509
    738,         2.25,           2.,   48.1359138
    739,           3.,           2.,   48.1080475
    740,         3.75,           2.,   48.0969315
    741,          4.5,           2.,    48.103569
    742,         5.25,           2.,   48.1375084
    743,         2.25,           2.,   47.2507095
    744,           3.,           2.,   47.2246323
    745,         3.75,           2.,   47.2141228
    746,          4.5,           2.,   47.2206688
    747,         5.25,           2.,   47.2524033
    748,         2.25,           2.,    46.359848
    749,           3.,           2.,   46.3386497
    750,         3.75,           2.,   46.3300095
    751,          4.5,           2.,   46.3357582
    752,         5.25,           2.,   46.3614655
    753,         2.25,           2.,   45.4630623
    754,           3.,           2.,   45.4499512
    755,         3.75,           2.,   45.4444885
    756,          4.5,           2.,   45.4487076
    757,         5.25,           2.,   45.4643936
    758,         2.25,           2.,   44.5600891
    759,           3.,           2.,   44.5584183
    760,         3.75,           2.,   44.5575066
    761,          4.5,           2.,   44.5594177
    762,         5.25,           2.,   44.5609245
    763,         2.25,           2.,   43.6506729
    764,           3.,           2.,   43.6639252
    765,         3.75,           2.,   43.6689835
    766,          4.5,           2.,   43.6677933
    767,         5.25,           2.,    43.650795
    768,         2.25,           2.,   42.7345581
    769,           3.,           2.,   42.7663536
    770,         3.75,           2.,   42.7788582
    771,          4.5,           2.,   42.7737312
    772,         5.25,           2.,   42.7337303
    773,   2.24804688,           2.,   41.8115311
    774,   2.99707031,           2.,   41.8656349
    775,   3.74780273,           2.,   41.8871307
    776,   4.49975586,           2.,   41.8771973
    777,   5.25235748,           2.,   41.8095398
    778,   2.23950911,           2.,   40.8995514
    779,   2.98489141,           2.,   40.9709053
    780,   3.74253058,           2.,     40.99786
    781,    4.5076232,           2.,   40.9799118
    782,   5.26061153,           2.,   40.8967934
    783,   2.21467233,           2.,   40.0387764
    784,   2.95908642,           2.,   40.0989685
    785,   3.74265623,           2.,   40.1178131
    786,   4.53146267,           2.,   40.1025658
    787,   5.28201628,           2.,   40.0364265
    788,         6.75,           2.,   51.6910172
    789,         6.75,           2.,   50.8708496
    790,         6.75,           2.,   50.0337601
    791,         6.75,           2.,   49.1770859
    792,         6.75,           2.,   48.2992859
    793,         6.75,           2.,   47.3992233
    794,         6.75,           2.,   46.4758987
    795,         6.75,           2.,   45.5283508
    796,         6.75,           2.,   44.5555916
    797,         6.75,           2.,   43.5566177
    798,         6.75,           2.,   42.5303726
    799,   6.74609375,           2.,   41.4800568
    800,   6.72738171,           2.,   40.4305305
    801,    6.6591692,           2.,   39.4458771
    802,   1.87033105,           2.,   38.4592171
    803,   2.79271221,           2.,   38.4003372
    804,   3.73995161,           2.,   38.3887634
    805,   4.69073057,           2.,   38.4018364
    806,    5.6185708,           2.,   38.4596367
    807,    1.5625751,           0.,   39.2802658
    808,   5.93979454,           0.,   39.2804146
    809,          1.5,           0.,   51.6497726
    810,          1.5,           0.,   50.7973518
    811,          1.5,           0.,   49.9380951
    812,          1.5,           0.,   49.0697021
    813,          1.5,           0.,   48.1909637
    814,          1.5,           0.,   47.3011551
    815,          1.5,           0.,   46.3996964
    816,          1.5,           0.,   45.4860954
    817,          1.5,           0.,    44.559845
    818,          1.5,           0.,     43.62043
    819,          1.5,           0.,   42.6673355
    820,          1.5,           0.,   41.7000351
    821,    1.5065105,           0.,   40.7449989
    822,   1.52867889,           0.,   39.8836441
    823,   1.06254673,           0.,   38.6734772
    824,           6.,           0.,   51.6498032
    825,           6.,           0.,   50.7974281
    826,           6.,           0.,   49.9382286
    827,           6.,           0.,   49.0698967
    828,           6.,           0.,   48.1912117
    829,           6.,           0.,   47.3014297
    830,           6.,           0.,   46.3999786
    831,           6.,           0.,   45.4863434
    832,           6.,           0.,   44.5600281
    833,           6.,           0.,   43.6205215
    834,           6.,           0.,   42.6672897
    835,           6.,           0.,     41.69981
    836,    5.9946394,           0.,    40.744606
    837,   5.97276306,           0.,   39.8833199
    838,   2.13165569,           0.,   39.2631721
    839,   2.90057468,           0.,   39.2576218
    840,   3.74047518,           0.,   39.2572556
    841,   4.58774614,           0.,   39.2594223
    842,   5.36322737,           0.,    39.263031
    843,    6.4365325,           0.,   38.6736794
    844,         0.75,           0.,   51.6910095
    845,         0.75,           0.,   50.8708267
    846,         0.75,           0.,   50.0337181
    847,         0.75,           0.,   49.1770248
    848,         0.75,           0.,    48.299202
    849,         0.75,           0.,    47.399128
    850,         0.75,           0.,   46.4758034
    851,         0.75,           0.,   45.5282593
    852,         0.75,           0.,   44.5555191
    853,         0.75,           0.,    43.556572
    854,         0.75,           0.,   42.5303764
    855,   0.75390625,           0.,   41.4801216
    856,  0.773200512,           0.,   40.4306412
    857,  0.841106653,           0.,   39.4459381
    858,         2.25,           0.,    51.630806
    859,           3.,           0.,   51.6224251
    860,         3.75,           0.,    51.619297
    861,          4.5,           0.,   51.6207657
    862,         5.25,           0.,   51.6310501
    863,         2.25,           0.,   50.7620239
    864,           3.,           0.,    50.745575
    865,         3.75,           0.,   50.7392807
    866,          4.5,           0.,   50.7425613
    867,         5.25,           0.,   50.7626266
    868,         2.25,           0.,   49.8908844
    869,           3.,           0.,   49.8680992
    870,         3.75,           0.,   49.8592224
    871,          4.5,           0.,   49.8641281
    872,         5.25,           0.,   49.8918839
    873,         2.25,           0.,   49.0158043
    874,           3.,           0.,   48.9890976
    875,         3.75,           0.,   48.9785576
    876,          4.5,           0.,    48.984623
    877,         5.25,           0.,   49.0171509
    878,         2.25,           0.,   48.1359138
    879,           3.,           0.,   48.1080475
    880,         3.75,           0.,   48.0969315
    881,          4.5,           0.,    48.103569
    882,         5.25,           0.,   48.1375084
    883,         2.25,           0.,   47.2507095
    884,           3.,           0.,   47.2246323
    885,         3.75,           0.,   47.2141228
    886,          4.5,           0.,   47.2206688
    887,         5.25,           0.,   47.2524033
    888,         2.25,           0.,    46.359848
    889,           3.,           0.,   46.3386497
    890,         3.75,           0.,   46.3300095
    891,          4.5,           0.,   46.3357582
    892,         5.25,           0.,   46.3614655
    893,         2.25,           0.,   45.4630623
    894,           3.,           0.,   45.4499512
    895,         3.75,           0.,   45.4444885
    896,          4.5,           0.,   45.4487076
    897,         5.25,           0.,   45.4643936
    898,         2.25,           0.,   44.5600891
    899,           3.,           0.,   44.5584183
    900,         3.75,           0.,   44.5575066
    901,          4.5,           0.,   44.5594177
    902,         5.25,           0.,   44.5609245
    903,         2.25,           0.,   43.6506729
    904,           3.,           0.,   43.6639252
    905,         3.75,           0.,   43.6689835
    906,          4.5,           0.,   43.6677933
    907,         5.25,           0.,    43.650795
    908,         2.25,           0.,   42.7345581
    909,           3.,           0.,   42.7663536
    910,         3.75,           0.,   42.7788582
    911,          4.5,           0.,   42.7737312
    912,         5.25,           0.,   42.7337303
    913,   2.24804688,           0.,   41.8115311
    914,   2.99707031,           0.,   41.8656349
    915,   3.74780273,           0.,   41.8871307
    916,   4.49975586,           0.,   41.8771973
    917,   5.25235748,           0.,   41.8095398
    918,   2.23950911,           0.,   40.8995514
    919,   2.98489141,           0.,   40.9709053
    920,   3.74253058,           0.,     40.99786
    921,    4.5076232,           0.,   40.9799118
    922,   5.26061153,           0.,   40.8967934
    923,   2.21467233,           0.,   40.0387764
    924,   2.95908642,           0.,   40.0989685
    925,   3.74265623,           0.,   40.1178131
    926,   4.53146267,           0.,   40.1025658
    927,   5.28201628,           0.,   40.0364265
    928,         6.75,           0.,   51.6910172
    929,         6.75,           0.,   50.8708496
    930,         6.75,           0.,   50.0337601
    931,         6.75,           0.,   49.1770859
    932,         6.75,           0.,   48.2992859
    933,         6.75,           0.,   47.3992233
    934,         6.75,           0.,   46.4758987
    935,         6.75,           0.,   45.5283508
    936,         6.75,           0.,   44.5555916
    937,         6.75,           0.,   43.5566177
    938,         6.75,           0.,   42.5303726
    939,   6.74609375,           0.,   41.4800568
    940,   6.72738171,           0.,   40.4305305
    941,    6.6591692,           0.,   39.4458771
    942,   1.87033105,           0.,   38.4592171
    943,   2.79271221,           0.,   38.4003372
    944,   3.73995161,           0.,   38.3887634
    945,   4.69073057,           0.,   38.4018364
    946,    5.6185708,           0.,   38.4596367
*Element, type=SC8R
 1,  62, 279,  32,   1,  72, 333,  21,   2
 2, 279, 280,  31,  32, 333, 334,  22,  21
 3, 280, 281,  30,  31, 334, 335,  23,  22
 4, 281, 282,  29,  30, 335, 336,  24,  23
 5, 282, 283,  28,  29, 336, 337,  25,  24
 6, 283, 284,  27,  28, 337, 338,  26,  25
 7, 284,  45,   4,  27, 338,  71,   3,  26
 8,  61, 285, 279,  62,  73, 339, 333,  72
 9, 285, 286, 280, 279, 339, 340, 334, 333
10, 286, 287, 281, 280, 340, 341, 335, 334
11, 287, 288, 282, 281, 341, 342, 336, 335
12, 288, 289, 283, 282, 342, 343, 337, 336
13, 289, 290, 284, 283, 343, 344, 338, 337
14, 290,  46,  45, 284, 344,  70,  71, 338
15,  60, 291, 285,  61,  74, 345, 339,  73
16, 291, 292, 286, 285, 345, 346, 340, 339
17, 292, 293, 287, 286, 346, 347, 341, 340
18, 293, 294, 288, 287, 347, 348, 342, 341
19, 294, 295, 289, 288, 348, 349, 343, 342
20, 295, 296, 290, 289, 349, 350, 344, 343
21, 296,  47,  46, 290, 350,  69,  70, 344
22,  59, 297, 291,  60,  75, 351, 345,  74
23, 297, 298, 292, 291, 351, 352, 346, 345
24, 298, 299, 293, 292, 352, 353, 347, 346
25, 299, 300, 294, 293, 353, 354, 348, 347
26, 300, 301, 295, 294, 354, 355, 349, 348
27, 301, 302, 296, 295, 355, 356, 350, 349
28, 302,  48,  47, 296, 356,  68,  69, 350
29,  58, 303, 297,  59,  76, 357, 351,  75
30, 303, 304, 298, 297, 357, 358, 352, 351
31, 304, 305, 299, 298, 358, 359, 353, 352
32, 305, 306, 300, 299, 359, 360, 354, 353
33, 306, 307, 301, 300, 360, 361, 355, 354
34, 307, 308, 302, 301, 361, 362, 356, 355
35, 308,  49,  48, 302, 362,  67,  68, 356
36,  57, 309, 303,  58,  77, 363, 357,  76
37, 309, 310, 304, 303, 363, 364, 358, 357
38, 310, 311, 305, 304, 364, 365, 359, 358
39, 311, 312, 306, 305, 365, 366, 360, 359
40, 312, 313, 307, 306, 366, 367, 361, 360
41, 313, 314, 308, 307, 367, 368, 362, 361
42, 314,  50,  49, 308, 368,  66,  67, 362
43,  56, 315, 309,  57,  78, 369, 363,  77
44, 315, 316, 310, 309, 369, 370, 364, 363
45, 316, 317, 311, 310, 370, 371, 365, 364
46, 317, 318, 312, 311, 371, 372, 366, 365
47, 318, 319, 313, 312, 372, 373, 367, 366
48, 319, 320, 314, 313, 373, 374, 368, 367
49, 320,  51,  50, 314, 374,  65,  66, 368
50,  55, 321, 315,  56,  79, 375, 369,  78
51, 321, 322, 316, 315, 375, 376, 370, 369
52, 322, 323, 317, 316, 376, 377, 371, 370
53, 323, 324, 318, 317, 377, 378, 372, 371
54, 324, 325, 319, 318, 378, 379, 373, 372
55, 325, 326, 320, 319, 379, 380, 374, 373
56, 326,  52,  51, 320, 380,  64,  65, 374
57,  54, 327, 321,  55,  80, 381, 375,  79
58, 327, 328, 322, 321, 381, 382, 376, 375
59, 328, 329, 323, 322, 382, 383, 377, 376
60, 329, 330, 324, 323, 383, 384, 378, 377
61, 330, 331, 325, 324, 384, 385, 379, 378
62, 331, 332, 326, 325, 385, 386, 380, 379
63, 332,  53,  52, 326, 386,  63,  64, 380
64,   8,  39, 327,  54,   5,  38, 381,  80
65,  39,  40, 328, 327,  38,  37, 382, 381
66,  40,  41, 329, 328,  37,  36, 383, 382
67,  41,  42, 330, 329,  36,  35, 384, 383
68,  42,  43, 331, 330,  35,  34, 385, 384
69,  43,  44, 332, 331,  34,  33, 386, 385
70,  44,   7,  53, 332,  33,   6,  63, 386
 71, 502, 188,  10,  81, 387, 182,   9, 126
 72, 503, 502,  81,  82, 388, 387, 126, 125
 73, 504, 503,  82,  83, 389, 388, 125, 124
 74, 505, 504,  83,  84, 390, 389, 124, 123
 75, 506, 505,  84,  85, 391, 390, 123, 122
 76, 507, 506,  85,  86, 392, 391, 122, 121
 77, 508, 507,  86,  87, 393, 392, 121, 120
 78, 509, 508,  87,  88, 394, 393, 120, 119
 79, 510, 509,  88,  89, 395, 394, 119, 118
 80, 511, 510,  89,  90, 396, 395, 118, 117
 81, 512, 511,  90,  91, 397, 396, 117, 116
 82, 513, 512,  91,  92, 398, 397, 116, 115
 83, 514, 513,  92,  93, 399, 398, 115, 114
 84, 515, 514,  93,  94, 400, 399, 114, 113
 85, 516, 515,  94,  95, 401, 400, 113, 112
 86, 517, 516,  95,  96, 402, 401, 112, 111
 87, 518, 517,  96,  97, 403, 402, 111, 110
 88, 519, 518,  97,  98, 404, 403, 110, 109
 89, 520, 519,  98,  99, 405, 404, 109, 108
 90, 521, 520,  99, 100, 406, 405, 108, 107
 91, 522, 521, 100, 101, 407, 406, 107, 106
 92, 523, 522, 101, 102, 408, 407, 106, 105
 93, 524, 523, 102, 103, 409, 408, 105, 104
 94, 187, 524, 103,  11, 173, 409, 104,  12
 95, 525, 189, 188, 502, 410, 181, 182, 387
 96, 526, 525, 502, 503, 411, 410, 387, 388
 97, 527, 526, 503, 504, 412, 411, 388, 389
 98, 528, 527, 504, 505, 413, 412, 389, 390
 99, 529, 528, 505, 506, 414, 413, 390, 391
100, 530, 529, 506, 507, 415, 414, 391, 392
101, 531, 530, 507, 508, 416, 415, 392, 393
102, 532, 531, 508, 509, 417, 416, 393, 394
103, 533, 532, 509, 510, 418, 417, 394, 395
104, 534, 533, 510, 511, 419, 418, 395, 396
105, 535, 534, 511, 512, 420, 419, 396, 397
106, 536, 535, 512, 513, 421, 420, 397, 398
107, 537, 536, 513, 514, 422, 421, 398, 399
108, 538, 537, 514, 515, 423, 422, 399, 400
109, 539, 538, 515, 516, 424, 423, 400, 401
110, 540, 539, 516, 517, 425, 424, 401, 402
111, 541, 540, 517, 518, 426, 425, 402, 403
112, 542, 541, 518, 519, 427, 426, 403, 404
113, 543, 542, 519, 520, 428, 427, 404, 405
114, 544, 543, 520, 521, 429, 428, 405, 406
115, 545, 544, 521, 522, 430, 429, 406, 407
116, 546, 545, 522, 523, 431, 430, 407, 408
117, 547, 546, 523, 524, 432, 431, 408, 409
118, 186, 547, 524, 187, 174, 432, 409, 173
119, 548, 190, 189, 525, 433, 180, 181, 410
120, 549, 548, 525, 526, 434, 433, 410, 411
121, 550, 549, 526, 527, 435, 434, 411, 412
122, 551, 550, 527, 528, 436, 435, 412, 413
123, 552, 551, 528, 529, 437, 436, 413, 414
124, 553, 552, 529, 530, 438, 437, 414, 415
125, 554, 553, 530, 531, 439, 438, 415, 416
126, 555, 554, 531, 532, 440, 439, 416, 417
127, 556, 555, 532, 533, 441, 440, 417, 418
128, 557, 556, 533, 534, 442, 441, 418, 419
129, 558, 557, 534, 535, 443, 442, 419, 420
130, 559, 558, 535, 536, 444, 443, 420, 421
131, 560, 559, 536, 537, 445, 444, 421, 422
132, 561, 560, 537, 538, 446, 445, 422, 423
133, 562, 561, 538, 539, 447, 446, 423, 424
134, 563, 562, 539, 540, 448, 447, 424, 425
135, 564, 563, 540, 541, 449, 448, 425, 426
136, 565, 564, 541, 542, 450, 449, 426, 427
137, 566, 565, 542, 543, 451, 450, 427, 428
138, 567, 566, 543, 544, 452, 451, 428, 429
139, 568, 567, 544, 545, 453, 452, 429, 430
140, 569, 568, 545, 546, 454, 453, 430, 431
141, 570, 569, 546, 547, 455, 454, 431, 432
142, 185, 570, 547, 186, 175, 455, 432, 174
143, 571, 191, 190, 548, 456, 179, 180, 433
144, 572, 571, 548, 549, 457, 456, 433, 434
145, 573, 572, 549, 550, 458, 457, 434, 435
146, 574, 573, 550, 551, 459, 458, 435, 436
147, 575, 574, 551, 552, 460, 459, 436, 437
148, 576, 575, 552, 553, 461, 460, 437, 438
149, 577, 576, 553, 554, 462, 461, 438, 439
150, 578, 577, 554, 555, 463, 462, 439, 440
151, 579, 578, 555, 556, 464, 463, 440, 441
152, 580, 579, 556, 557, 465, 464, 441, 442
153, 581, 580, 557, 558, 466, 465, 442, 443
154, 582, 581, 558, 559, 467, 466, 443, 444
155, 583, 582, 559, 560, 468, 467, 444, 445
156, 584, 583, 560, 561, 469, 468, 445, 446
157, 585, 584, 561, 562, 470, 469, 446, 447
158, 586, 585, 562, 563, 471, 470, 447, 448
159, 587, 586, 563, 564, 472, 471, 448, 449
160, 588, 587, 564, 565, 473, 472, 449, 450
161, 589, 588, 565, 566, 474, 473, 450, 451
162, 590, 589, 566, 567, 475, 474, 451, 452
163, 591, 590, 567, 568, 476, 475, 452, 453
164, 592, 591, 568, 569, 477, 476, 453, 454
165, 593, 592, 569, 570, 478, 477, 454, 455
166, 184, 593, 570, 185, 176, 478, 455, 175
167, 594, 192, 191, 571, 479, 178, 179, 456
168, 595, 594, 571, 572, 480, 479, 456, 457
169, 596, 595, 572, 573, 481, 480, 457, 458
170, 597, 596, 573, 574, 482, 481, 458, 459
171, 598, 597, 574, 575, 483, 482, 459, 460
172, 599, 598, 575, 576, 484, 483, 460, 461
173, 600, 599, 576, 577, 485, 484, 461, 462
174, 601, 600, 577, 578, 486, 485, 462, 463
175, 602, 601, 578, 579, 487, 486, 463, 464
176, 603, 602, 579, 580, 488, 487, 464, 465
177, 604, 603, 580, 581, 489, 488, 465, 466
178, 605, 604, 581, 582, 490, 489, 466, 467
179, 606, 605, 582, 583, 491, 490, 467, 468
180, 607, 606, 583, 584, 492, 491, 468, 469
181, 608, 607, 584, 585, 493, 492, 469, 470
182, 609, 608, 585, 586, 494, 493, 470, 471
183, 610, 609, 586, 587, 495, 494, 471, 472
184, 611, 610, 587, 588, 496, 495, 472, 473
185, 612, 611, 588, 589, 497, 496, 473, 474
186, 613, 612, 589, 590, 498, 497, 474, 475
187, 614, 613, 590, 591, 499, 498, 475, 476
188, 615, 614, 591, 592, 500, 499, 476, 477
189, 616, 615, 592, 593, 501, 500, 477, 478
190, 183, 616, 593, 184, 177, 501, 478, 176
191, 149,  13, 192, 594, 150,  16, 178, 479
192, 148, 149, 594, 595, 151, 150, 479, 480
193, 147, 148, 595, 596, 152, 151, 480, 481
194, 146, 147, 596, 597, 153, 152, 481, 482
195, 145, 146, 597, 598, 154, 153, 482, 483
196, 144, 145, 598, 599, 155, 154, 483, 484
197, 143, 144, 599, 600, 156, 155, 484, 485
198, 142, 143, 600, 601, 157, 156, 485, 486
199, 141, 142, 601, 602, 158, 157, 486, 487
200, 140, 141, 602, 603, 159, 158, 487, 488
201, 139, 140, 603, 604, 160, 159, 488, 489
202, 138, 139, 604, 605, 161, 160, 489, 490
203, 137, 138, 605, 606, 162, 161, 490, 491
204, 136, 137, 606, 607, 163, 162, 491, 492
205, 135, 136, 607, 608, 164, 163, 492, 493
206, 134, 135, 608, 609, 165, 164, 493, 494
207, 133, 134, 609, 610, 166, 165, 494, 495
208, 132, 133, 610, 611, 167, 166, 495, 496
209, 131, 132, 611, 612, 168, 167, 496, 497
210, 130, 131, 612, 613, 169, 168, 497, 498
211, 129, 130, 613, 614, 170, 169, 498, 499
212, 128, 129, 614, 615, 171, 170, 499, 500
213, 127, 128, 615, 616, 172, 171, 500, 501
214,  14, 127, 616, 183,  15, 172, 501, 177
215, 183, 617, 202,  14, 177, 642, 193,  15
216, 617, 618, 201, 202, 642, 643, 194, 193
217, 618, 619, 200, 201, 643, 644, 195, 194
218, 619, 620, 199, 200, 644, 645, 196, 195
219, 620, 621, 198, 199, 645, 646, 197, 196
220, 621, 213,  18, 198, 646, 222,  17, 197
221, 184, 622, 617, 183, 176, 647, 642, 177
222, 622, 623, 618, 617, 647, 648, 643, 642
223, 623, 624, 619, 618, 648, 649, 644, 643
224, 624, 625, 620, 619, 649, 650, 645, 644
225, 625, 626, 621, 620, 650, 651, 646, 645
226, 626, 214, 213, 621, 651, 221, 222, 646
227, 185, 627, 622, 184, 175, 652, 647, 176
228, 627, 628, 623, 622, 652, 653, 648, 647
229, 628, 629, 624, 623, 653, 654, 649, 648
230, 629, 630, 625, 624, 654, 655, 650, 649
231, 630, 631, 626, 625, 655, 656, 651, 650
232, 631, 215, 214, 626, 656, 220, 221, 651
233, 186, 632, 627, 185, 174, 657, 652, 175
234, 632, 633, 628, 627, 657, 658, 653, 652
235, 633, 634, 629, 628, 658, 659, 654, 653
236, 634, 635, 630, 629, 659, 660, 655, 654
237, 635, 636, 631, 630, 660, 661, 656, 655
238, 636, 216, 215, 631, 661, 219, 220, 656
239, 187, 637, 632, 186, 173, 662, 657, 174
240, 637, 638, 633, 632, 662, 663, 658, 657
241, 638, 639, 634, 633, 663, 664, 659, 658
242, 639, 640, 635, 634, 664, 665, 660, 659
243, 640, 641, 636, 635, 665, 666, 661, 660
244, 641, 217, 216, 636, 666, 218, 219, 661
245,  11, 208, 637, 187,  12, 207, 662, 173
246, 208, 209, 638, 637, 207, 206, 663, 662
247, 209, 210, 639, 638, 206, 205, 664, 663
248, 210, 211, 640, 639, 205, 204, 665, 664
249, 211, 212, 641, 640, 204, 203, 666, 665
250, 212,  20, 217, 641, 203,  19, 218, 666
251, 844, 251,   8,  54, 704, 250,   5,  80
252, 809, 844,  54,  55, 669, 704,  80,  79
253, 845, 252, 251, 844, 705, 249, 250, 704
254, 810, 845, 844, 809, 670, 705, 704, 669
255, 846, 253, 252, 845, 706, 248, 249, 705
256, 811, 846, 845, 810, 671, 706, 705, 670
257, 847, 254, 253, 846, 707, 247, 248, 706
258, 812, 847, 846, 811, 672, 707, 706, 671
259, 848, 255, 254, 847, 708, 246, 247, 707
260, 813, 848, 847, 812, 673, 708, 707, 672
261, 849, 256, 255, 848, 709, 245, 246, 708
262, 814, 849, 848, 813, 674, 709, 708, 673
263, 850, 257, 256, 849, 710, 244, 245, 709
264, 815, 850, 849, 814, 675, 710, 709, 674
265, 851, 258, 257, 850, 711, 243, 244, 710
266, 816, 851, 850, 815, 676, 711, 710, 675
267, 852, 259, 258, 851, 712, 242, 243, 711
268, 817, 852, 851, 816, 677, 712, 711, 676
269, 853, 260, 259, 852, 713, 241, 242, 712
270, 818, 853, 852, 817, 678, 713, 712, 677
271, 854, 261, 260, 853, 714, 240, 241, 713
272, 819, 854, 853, 818, 679, 714, 713, 678
273, 855, 262, 261, 854, 715, 239, 240, 714
274, 820, 855, 854, 819, 680, 715, 714, 679
275, 856, 263, 262, 855, 716, 238, 239, 715
276, 821, 856, 855, 820, 681, 716, 715, 680
277, 857, 264, 263, 856, 717, 237, 238, 716
278, 822, 857, 856, 821, 682, 717, 716, 681
279, 823,  13, 264, 857, 683,  16, 237, 717
280, 807, 823, 857, 822, 667, 683, 717, 682
281, 858, 809,  55,  56, 718, 669,  79,  78
282, 859, 858,  56,  57, 719, 718,  78,  77
283, 860, 859,  57,  58, 720, 719,  77,  76
284, 861, 860,  58,  59, 721, 720,  76,  75
285, 862, 861,  59,  60, 722, 721,  75,  74
286, 824, 862,  60,  61, 684, 722,  74,  73
287, 863, 810, 809, 858, 723, 670, 669, 718
288, 864, 863, 858, 859, 724, 723, 718, 719
289, 865, 864, 859, 860, 725, 724, 719, 720
290, 866, 865, 860, 861, 726, 725, 720, 721
291, 867, 866, 861, 862, 727, 726, 721, 722
292, 825, 867, 862, 824, 685, 727, 722, 684
293, 868, 811, 810, 863, 728, 671, 670, 723
294, 869, 868, 863, 864, 729, 728, 723, 724
295, 870, 869, 864, 865, 730, 729, 724, 725
296, 871, 870, 865, 866, 731, 730, 725, 726
297, 872, 871, 866, 867, 732, 731, 726, 727
298, 826, 872, 867, 825, 686, 732, 727, 685
299, 873, 812, 811, 868, 733, 672, 671, 728
300, 874, 873, 868, 869, 734, 733, 728, 729
301, 875, 874, 869, 870, 735, 734, 729, 730
302, 876, 875, 870, 871, 736, 735, 730, 731
303, 877, 876, 871, 872, 737, 736, 731, 732
304, 827, 877, 872, 826, 687, 737, 732, 686
305, 878, 813, 812, 873, 738, 673, 672, 733
306, 879, 878, 873, 874, 739, 738, 733, 734
307, 880, 879, 874, 875, 740, 739, 734, 735
308, 881, 880, 875, 876, 741, 740, 735, 736
309, 882, 881, 876, 877, 742, 741, 736, 737
310, 828, 882, 877, 827, 688, 742, 737, 687
311, 883, 814, 813, 878, 743, 674, 673, 738
312, 884, 883, 878, 879, 744, 743, 738, 739
313, 885, 884, 879, 880, 745, 744, 739, 740
314, 886, 885, 880, 881, 746, 745, 740, 741
315, 887, 886, 881, 882, 747, 746, 741, 742
316, 829, 887, 882, 828, 689, 747, 742, 688
317, 888, 815, 814, 883, 748, 675, 674, 743
318, 889, 888, 883, 884, 749, 748, 743, 744
319, 890, 889, 884, 885, 750, 749, 744, 745
320, 891, 890, 885, 886, 751, 750, 745, 746
321, 892, 891, 886, 887, 752, 751, 746, 747
322, 830, 892, 887, 829, 690, 752, 747, 689
323, 893, 816, 815, 888, 753, 676, 675, 748
324, 894, 893, 888, 889, 754, 753, 748, 749
325, 895, 894, 889, 890, 755, 754, 749, 750
326, 896, 895, 890, 891, 756, 755, 750, 751
327, 897, 896, 891, 892, 757, 756, 751, 752
328, 831, 897, 892, 830, 691, 757, 752, 690
329, 898, 817, 816, 893, 758, 677, 676, 753
330, 899, 898, 893, 894, 759, 758, 753, 754
331, 900, 899, 894, 895, 760, 759, 754, 755
332, 901, 900, 895, 896, 761, 760, 755, 756
333, 902, 901, 896, 897, 762, 761, 756, 757
334, 832, 902, 897, 831, 692, 762, 757, 691
335, 903, 818, 817, 898, 763, 678, 677, 758
336, 904, 903, 898, 899, 764, 763, 758, 759
337, 905, 904, 899, 900, 765, 764, 759, 760
338, 906, 905, 900, 901, 766, 765, 760, 761
339, 907, 906, 901, 902, 767, 766, 761, 762
340, 833, 907, 902, 832, 693, 767, 762, 692
341, 908, 819, 818, 903, 768, 679, 678, 763
342, 909, 908, 903, 904, 769, 768, 763, 764
343, 910, 909, 904, 905, 770, 769, 764, 765
344, 911, 910, 905, 906, 771, 770, 765, 766
345, 912, 911, 906, 907, 772, 771, 766, 767
346, 834, 912, 907, 833, 694, 772, 767, 693
347, 913, 820, 819, 908, 773, 680, 679, 768
348, 914, 913, 908, 909, 774, 773, 768, 769
349, 915, 914, 909, 910, 775, 774, 769, 770
350, 916, 915, 910, 911, 776, 775, 770, 771
351, 917, 916, 911, 912, 777, 776, 771, 772
352, 835, 917, 912, 834, 695, 777, 772, 694
353, 918, 821, 820, 913, 778, 681, 680, 773
354, 919, 918, 913, 914, 779, 778, 773, 774
355, 920, 919, 914, 915, 780, 779, 774, 775
356, 921, 920, 915, 916, 781, 780, 775, 776
357, 922, 921, 916, 917, 782, 781, 776, 777
358, 836, 922, 917, 835, 696, 782, 777, 695
359, 923, 822, 821, 918, 783, 682, 681, 778
360, 924, 923, 918, 919, 784, 783, 778, 779
361, 925, 924, 919, 920, 785, 784, 779, 780
362, 926, 925, 920, 921, 786, 785, 780, 781
363, 927, 926, 921, 922, 787, 786, 781, 782
364, 837, 927, 922, 836, 697, 787, 782, 696
365, 838, 807, 822, 923, 698, 667, 682, 783
366, 839, 838, 923, 924, 699, 698, 783, 784
367, 840, 839, 924, 925, 700, 699, 784, 785
368, 841, 840, 925, 926, 701, 700, 785, 786
369, 842, 841, 926, 927, 702, 701, 786, 787
370, 808, 842, 927, 837, 668, 702, 787, 697
371, 928, 824,  61,  62, 788, 684,  73,  72
372, 278, 928,  62,   1, 223, 788,  72,   2
373, 929, 825, 824, 928, 789, 685, 684, 788
374, 277, 929, 928, 278, 224, 789, 788, 223
375, 930, 826, 825, 929, 790, 686, 685, 789
376, 276, 930, 929, 277, 225, 790, 789, 224
377, 931, 827, 826, 930, 791, 687, 686, 790
378, 275, 931, 930, 276, 226, 791, 790, 225
379, 932, 828, 827, 931, 792, 688, 687, 791
380, 274, 932, 931, 275, 227, 792, 791, 226
381, 933, 829, 828, 932, 793, 689, 688, 792
382, 273, 933, 932, 274, 228, 793, 792, 227
383, 934, 830, 829, 933, 794, 690, 689, 793
384, 272, 934, 933, 273, 229, 794, 793, 228
385, 935, 831, 830, 934, 795, 691, 690, 794
386, 271, 935, 934, 272, 230, 795, 794, 229
387, 936, 832, 831, 935, 796, 692, 691, 795
388, 270, 936, 935, 271, 231, 796, 795, 230
389, 937, 833, 832, 936, 797, 693, 692, 796
390, 269, 937, 936, 270, 232, 797, 796, 231
391, 938, 834, 833, 937, 798, 694, 693, 797
392, 268, 938, 937, 269, 233, 798, 797, 232
393, 939, 835, 834, 938, 799, 695, 694, 798
394, 267, 939, 938, 268, 234, 799, 798, 233
395, 940, 836, 835, 939, 800, 696, 695, 799
396, 266, 940, 939, 267, 235, 800, 799, 234
397, 941, 837, 836, 940, 801, 697, 696, 800
398, 265, 941, 940, 266, 236, 801, 800, 235
399, 843, 808, 837, 941, 703, 668, 697, 801
400,  10, 843, 941, 265,   9, 703, 801, 236
401, 942, 823, 807, 838, 802, 683, 667, 698
402, 943, 942, 838, 839, 803, 802, 698, 699
403, 944, 943, 839, 840, 804, 803, 699, 700
404, 945, 944, 840, 841, 805, 804, 700, 701
405, 946, 945, 841, 842, 806, 805, 701, 702
406, 843, 946, 842, 808, 703, 806, 702, 668
407, 192,  13, 823, 942, 178,  16, 683, 802
408, 191, 192, 942, 943, 179, 178, 802, 803
409, 190, 191, 943, 944, 180, 179, 803, 804
410, 189, 190, 944, 945, 181, 180, 804, 805
411, 188, 189, 945, 946, 182, 181, 805, 806
412,  10, 188, 946, 843,   9, 182, 806, 703
*Orientation, name=Ori-1
          0.,           0.,           1.,           1.,           0.,           0.
3, 0.
** Region: (Composite layup - 8 plies-1: Generated From Layup), (Controls:EC-1)
*Elset, elset="Composite layup - 8 plies-1", generate
   1,  412,    1
** Section: Composite layup - 8 plies-1
*Shell Section, elset="Composite layup - 8 plies-1", composite, orientation=Ori-1, controls=EC-1, stack direction=ORIENTATION, layup="Composite layup - 8 plies"
1., 3, FRP, 0., Ply-1
1., 3, FRP, 0., Ply-2
1., 3, FRP, 0., Ply-3
1., 3, FRP, 0., Ply-4
1., 3, FRP, 0., Ply-5
1., 3, FRP, 0., Ply-6
1., 3, FRP, 0., Ply-7
1., 3, FRP, 0., Ply-8
*End Part
**  
*Part, name=LoadingTip
*End Part
**  
*Part, name=Wire
*Node
      1,           0.,           0.,           0.
      2,        28.75,           0.,           0.
      3,         57.5,           0.,           0.
      4,  0.326704532,           0.,           0.
      5,  0.653409064,           0.,           0.
      6,  0.980113626,           0.,           0.
      7,   1.30681813,           0.,           0.
      8,   1.63352275,           0.,           0.
      9,   1.96022725,           0.,           0.
     10,   2.28693175,           0.,           0.
     11,   2.61363626,           0.,           0.
     12,     2.940341,           0.,           0.
     13,    3.2670455,           0.,           0.
     14,      3.59375,           0.,           0.
     15,    3.9204545,           0.,           0.
     16,     4.247159,           0.,           0.
     17,   4.57386351,           0.,           0.
     18,   4.90056801,           0.,           0.
     19,   5.22727251,           0.,           0.
     20,   5.55397749,           0.,           0.
     21,   5.88068199,           0.,           0.
     22,   6.20738649,           0.,           0.
     23,     6.534091,           0.,           0.
     24,    6.8607955,           0.,           0.
     25,       7.1875,           0.,           0.
     26,    7.5142045,           0.,           0.
     27,     7.840909,           0.,           0.
     28,   8.16761398,           0.,           0.
     29,   8.49431801,           0.,           0.
     30,   8.82102299,           0.,           0.
     31,   9.14772701,           0.,           0.
     32,   9.47443199,           0.,           0.
     33,   9.80113602,           0.,           0.
     34,    10.127841,           0.,           0.
     35,    10.454545,           0.,           0.
     36,     10.78125,           0.,           0.
     37,    11.107955,           0.,           0.
     38,    11.434659,           0.,           0.
     39,    11.761364,           0.,           0.
     40,    12.088068,           0.,           0.
     41,    12.414773,           0.,           0.
     42,    12.741477,           0.,           0.
     43,    13.068182,           0.,           0.
     44,    13.394886,           0.,           0.
     45,    13.721591,           0.,           0.
     46,    14.048295,           0.,           0.
     47,       14.375,           0.,           0.
     48,    14.701705,           0.,           0.
     49,    15.028409,           0.,           0.
     50,    15.355114,           0.,           0.
     51,    15.681818,           0.,           0.
     52,    16.008522,           0.,           0.
     53,    16.335228,           0.,           0.
     54,    16.661932,           0.,           0.
     55,    16.988636,           0.,           0.
     56,     17.31534,           0.,           0.
     57,    17.642046,           0.,           0.
     58,     17.96875,           0.,           0.
     59,    18.295454,           0.,           0.
     60,     18.62216,           0.,           0.
     61,    18.948864,           0.,           0.
     62,    19.275568,           0.,           0.
     63,    19.602272,           0.,           0.
     64,    19.928978,           0.,           0.
     65,    20.255682,           0.,           0.
     66,    20.582386,           0.,           0.
     67,     20.90909,           0.,           0.
     68,    21.235796,           0.,           0.
     69,      21.5625,           0.,           0.
     70,    21.889204,           0.,           0.
     71,     22.21591,           0.,           0.
     72,    22.542614,           0.,           0.
     73,    22.869318,           0.,           0.
     74,    23.196022,           0.,           0.
     75,    23.522728,           0.,           0.
     76,    23.849432,           0.,           0.
     77,    24.176136,           0.,           0.
     78,     24.50284,           0.,           0.
     79,    24.829546,           0.,           0.
     80,     25.15625,           0.,           0.
     81,    25.482954,           0.,           0.
     82,     25.80966,           0.,           0.
     83,    26.136364,           0.,           0.
     84,    26.463068,           0.,           0.
     85,    26.789772,           0.,           0.
     86,    27.116478,           0.,           0.
     87,    27.443182,           0.,           0.
     88,    27.769886,           0.,           0.
     89,     28.09659,           0.,           0.
     90,    28.423296,           0.,           0.
     91,    29.076704,           0.,           0.
     92,     29.40341,           0.,           0.
     93,    29.730114,           0.,           0.
     94,    30.056818,           0.,           0.
     95,    30.383522,           0.,           0.
     96,    30.710228,           0.,           0.
     97,    31.036932,           0.,           0.
     98,    31.363636,           0.,           0.
     99,     31.69034,           0.,           0.
    100,   32.0170441,           0.,           0.
    101,     32.34375,           0.,           0.
    102,   32.6704559,           0.,           0.
    103,   32.9971581,           0.,           0.
    104,    33.323864,           0.,           0.
    105,   33.6505699,           0.,           0.
    106,    33.977272,           0.,           0.
    107,    34.303978,           0.,           0.
    108,   34.6306801,           0.,           0.
    109,    34.957386,           0.,           0.
    110,   35.2840919,           0.,           0.
    111,   35.6107941,           0.,           0.
    112,      35.9375,           0.,           0.
    113,   36.2642059,           0.,           0.
    114,   36.5909081,           0.,           0.
    115,    36.917614,           0.,           0.
    116,   37.2443199,           0.,           0.
    117,    37.571022,           0.,           0.
    118,    37.897728,           0.,           0.
    119,   38.2244301,           0.,           0.
    120,    38.551136,           0.,           0.
    121,   38.8778419,           0.,           0.
    122,   39.2045441,           0.,           0.
    123,     39.53125,           0.,           0.
    124,   39.8579559,           0.,           0.
    125,   40.1846581,           0.,           0.
    126,    40.511364,           0.,           0.
    127,   40.8380699,           0.,           0.
    128,    41.164772,           0.,           0.
    129,    41.491478,           0.,           0.
    130,   41.8181801,           0.,           0.
    131,    42.144886,           0.,           0.
    132,   42.4715919,           0.,           0.
    133,   42.7982941,           0.,           0.
    134,       43.125,           0.,           0.
    135,   43.4517059,           0.,           0.
    136,   43.7784081,           0.,           0.
    137,    44.105114,           0.,           0.
    138,   44.4318199,           0.,           0.
    139,    44.758522,           0.,           0.
    140,    45.085228,           0.,           0.
    141,   45.4119301,           0.,           0.
    142,    45.738636,           0.,           0.
    143,   46.0653419,           0.,           0.
    144,   46.3920441,           0.,           0.
    145,     46.71875,           0.,           0.
    146,   47.0454559,           0.,           0.
    147,   47.3721581,           0.,           0.
    148,    47.698864,           0.,           0.
    149,   48.0255699,           0.,           0.
    150,    48.352272,           0.,           0.
    151,    48.678978,           0.,           0.
    152,   49.0056801,           0.,           0.
    153,    49.332386,           0.,           0.
    154,   49.6590919,           0.,           0.
    155,   49.9857941,           0.,           0.
    156,      50.3125,           0.,           0.
    157,   50.6392059,           0.,           0.
    158,   50.9659081,           0.,           0.
    159,    51.292614,           0.,           0.
    160,   51.6193199,           0.,           0.
    161,    51.946022,           0.,           0.
    162,    52.272728,           0.,           0.
    163,   52.5994301,           0.,           0.
    164,    52.926136,           0.,           0.
    165,   53.2528419,           0.,           0.
    166,   53.5795441,           0.,           0.
    167,     53.90625,           0.,           0.
    168,   54.2329559,           0.,           0.
    169,   54.5596581,           0.,           0.
    170,    54.886364,           0.,           0.
    171,   55.2130699,           0.,           0.
    172,    55.539772,           0.,           0.
    173,    55.866478,           0.,           0.
    174,   56.1931801,           0.,           0.
    175,    56.519886,           0.,           0.
    176,   56.8465919,           0.,           0.
    177,   57.1732941,           0.,           0.
*Element, type=T3D2
 1,  1,  4
 2,  4,  5
 3,  5,  6
 4,  6,  7
 5,  7,  8
 6,  8,  9
 7,  9, 10
 8, 10, 11
 9, 11, 12
10, 12, 13
11, 13, 14
12, 14, 15
13, 15, 16
14, 16, 17
15, 17, 18
16, 18, 19
17, 19, 20
18, 20, 21
19, 21, 22
20, 22, 23
21, 23, 24
22, 24, 25
23, 25, 26
24, 26, 27
25, 27, 28
26, 28, 29
27, 29, 30
28, 30, 31
29, 31, 32
30, 32, 33
31, 33, 34
32, 34, 35
33, 35, 36
34, 36, 37
35, 37, 38
36, 38, 39
37, 39, 40
38, 40, 41
39, 41, 42
40, 42, 43
41, 43, 44
42, 44, 45
43, 45, 46
44, 46, 47
45, 47, 48
46, 48, 49
47, 49, 50
48, 50, 51
49, 51, 52
50, 52, 53
51, 53, 54
52, 54, 55
53, 55, 56
54, 56, 57
55, 57, 58
56, 58, 59
57, 59, 60
58, 60, 61
59, 61, 62
60, 62, 63
61, 63, 64
62, 64, 65
63, 65, 66
64, 66, 67
65, 67, 68
66, 68, 69
67, 69, 70
68, 70, 71
69, 71, 72
70, 72, 73
71, 73, 74
72, 74, 75
73, 75, 76
74, 76, 77
75, 77, 78
76, 78, 79
77, 79, 80
78, 80, 81
79, 81, 82
80, 82, 83
81, 83, 84
82, 84, 85
83, 85, 86
84, 86, 87
85, 87, 88
86, 88, 89
87, 89, 90
88, 90,  2
 89,   2,  91
 90,  91,  92
 91,  92,  93
 92,  93,  94
 93,  94,  95
 94,  95,  96
 95,  96,  97
 96,  97,  98
 97,  98,  99
 98,  99, 100
 99, 100, 101
100, 101, 102
101, 102, 103
102, 103, 104
103, 104, 105
104, 105, 106
105, 106, 107
106, 107, 108
107, 108, 109
108, 109, 110
109, 110, 111
110, 111, 112
111, 112, 113
112, 113, 114
113, 114, 115
114, 115, 116
115, 116, 117
116, 117, 118
117, 118, 119
118, 119, 120
119, 120, 121
120, 121, 122
121, 122, 123
122, 123, 124
123, 124, 125
124, 125, 126
125, 126, 127
126, 127, 128
127, 128, 129
128, 129, 130
129, 130, 131
130, 131, 132
131, 132, 133
132, 133, 134
133, 134, 135
134, 135, 136
135, 136, 137
136, 137, 138
137, 138, 139
138, 139, 140
139, 140, 141
140, 141, 142
141, 142, 143
142, 143, 144
143, 144, 145
144, 145, 146
145, 146, 147
146, 147, 148
147, 148, 149
148, 149, 150
149, 150, 151
150, 151, 152
151, 152, 153
152, 153, 154
153, 154, 155
154, 155, 156
155, 156, 157
156, 157, 158
157, 158, 159
158, 159, 160
159, 160, 161
160, 161, 162
161, 162, 163
162, 163, 164
163, 164, 165
164, 165, 166
165, 166, 167
166, 167, 168
167, 168, 169
168, 169, 170
169, 170, 171
170, 171, 172
171, 172, 173
172, 173, 174
173, 174, 175
174, 175, 176
175, 176, 177
176, 177,   3
*Nset, nset=WireSet, generate
   1,  177,    1
*Elset, elset=WireSet, generate
   1,  176,    1
** Section: WireSection
*Solid Section, elset=WireSet, material=NiTiCo
0.0122718,
*End Part
**  
**
** ASSEMBLY
**
*Assembly, name=Assembly
**  
*Instance, name="FRP Sample", part="FRP Sample"
*End Instance
**  
*Instance, name=LoadingTip, part=LoadingTip
        3.75,           2.,         57.5
        3.75,           2.,         57.5,         3.75,           3.,         57.5,          90.
*Node
      1,           0.,           5.,        5.625
*Nset, nset=LoadingTip-RefPt_, internal
1, 
*Surface, type=CYLINDER, name=SupportTipSurface
START, 4.98097349045873, 4.56422128626171
 CIRCL, -4.98097349045873, 4.56422128626171,           0.,           5.
*Rigid Body, ref node=LoadingTip-RefPt_, analytical surface=SupportTipSurface
*End Instance
**  
*Instance, name=Wire, part=Wire
        0.15,         0.25,           0.
        0.15,         0.25,           0.,         0.15,        -0.75,           0.,          90.
*End Instance
**  
*Instance, name=Wire-lin-1-2, part=Wire
        0.45,         0.25,           0.
        0.45,         0.25,           0.,         0.45,        -0.75,           0.,          90.
*End Instance
**  
*Instance, name=Wire-lin-1-3, part=Wire
        0.75,         0.25,           0.
        0.75,         0.25,           0.,         0.75,        -0.75,           0.,          90.
*End Instance
**  
*Instance, name=Wire-lin-1-4, part=Wire
        1.05,         0.25,           0.
        1.05,         0.25,           0.,         1.05,        -0.75,           0.,          90.
*End Instance
**  
*Instance, name=Wire-lin-1-5, part=Wire
        1.35,         0.25,           0.
        1.35,         0.25,           0.,         1.35,        -0.75,           0.,          90.
*End Instance
**  
*Instance, name=Wire-lin-1-6, part=Wire
        1.65,         0.25,           0.
        1.65,         0.25,           0.,         1.65,        -0.75,           0.,          90.
*End Instance
**  
*Instance, name=Wire-lin-1-7, part=Wire
        1.95,         0.25,           0.
        1.95,         0.25,           0.,         1.95,        -0.75,           0.,          90.
*End Instance
**  
*Instance, name=Wire-lin-1-8, part=Wire
        2.25,         0.25,           0.
        2.25,         0.25,           0.,         2.25,        -0.75,           0.,          90.
*End Instance
**  
*Instance, name=Wire-lin-1-9, part=Wire
        2.55,         0.25,           0.
        2.55,         0.25,           0.,         2.55,        -0.75,           0.,          90.
*End Instance
**  
*Instance, name=Wire-lin-1-10, part=Wire
        2.85,         0.25,           0.
        2.85,         0.25,           0.,         2.85,        -0.75,           0.,          90.
*End Instance
**  
*Instance, name=Wire-lin-1-11, part=Wire
        3.15,         0.25,           0.
        3.15,         0.25,           0.,         3.15,        -0.75,           0.,          90.
*End Instance
**  
*Instance, name=Wire-lin-1-12, part=Wire
        3.45,         0.25,           0.
        3.45,         0.25,           0.,         3.45,        -0.75,           0.,          90.
*End Instance
**  
*Instance, name=Wire-lin-1-13, part=Wire
        3.75,         0.25,           0.
        3.75,         0.25,           0.,         3.75,        -0.75,           0.,          90.
*End Instance
**  
*Instance, name=Wire-lin-1-14, part=Wire
        4.05,         0.25,           0.
        4.05,         0.25,           0.,         4.05,        -0.75,           0.,          90.
*End Instance
**  
*Instance, name=Wire-lin-1-15, part=Wire
        4.35,         0.25,           0.
        4.35,         0.25,           0.,         4.35,        -0.75,           0.,          90.
*End Instance
**  
*Instance, name=Wire-lin-1-16, part=Wire
        4.65,         0.25,           0.
        4.65,         0.25,           0.,         4.65,        -0.75,           0.,          90.
*End Instance
**  
*Instance, name=Wire-lin-1-17, part=Wire
        4.95,         0.25,           0.
        4.95,         0.25,           0.,         4.95,        -0.75,           0.,          90.
*End Instance
**  
*Instance, name=Wire-lin-1-18, part=Wire
        5.25,         0.25,           0.
        5.25,         0.25,           0.,         5.25,        -0.75,           0.,          90.
*End Instance
**  
*Instance, name=Wire-lin-1-19, part=Wire
        5.55,         0.25,           0.
        5.55,         0.25,           0.,         5.55,        -0.75,           0.,          90.
*End Instance
**  
*Instance, name=Wire-lin-1-20, part=Wire
        5.85,         0.25,           0.
        5.85,         0.25,           0.,         5.85,        -0.75,           0.,          90.
*End Instance
**  
*Instance, name=Wire-lin-1-21, part=Wire
        6.15,         0.25,           0.
        6.15,         0.25,           0.,         6.15,        -0.75,           0.,          90.
*End Instance
**  
*Instance, name=Wire-lin-1-22, part=Wire
        6.45,         0.25,           0.
        6.45,         0.25,           0.,         6.45,        -0.75,           0.,          90.
*End Instance
**  
*Instance, name=Wire-lin-1-23, part=Wire
        6.75,         0.25,           0.
        6.75,         0.25,           0.,         6.75,        -0.75,           0.,          90.
*End Instance
**  
*Instance, name=Wire-lin-1-24, part=Wire
        7.05,         0.25,           0.
        7.05,         0.25,           0.,         7.05,        -0.75,           0.,          90.
*End Instance
**  
*Instance, name=Wire-lin-1-25, part=Wire
        7.35,         0.25,           0.
        7.35,         0.25,           0.,         7.35,        -0.75,           0.,          90.
*End Instance
**  
*Instance, name=Wire-lin-2-1, part=Wire
        0.15,         1.75,           0.
        0.15,         1.75,           0.,         0.15,         0.75,           0.,          90.
*End Instance
**  
*Instance, name=Wire-lin-2-2, part=Wire
        0.45,         1.75,           0.
        0.45,         1.75,           0.,         0.45,         0.75,           0.,          90.
*End Instance
**  
*Instance, name=Wire-lin-2-3, part=Wire
        0.75,         1.75,           0.
        0.75,         1.75,           0.,         0.75,         0.75,           0.,          90.
*End Instance
**  
*Instance, name=Wire-lin-2-4, part=Wire
        1.05,         1.75,           0.
        1.05,         1.75,           0.,         1.05,         0.75,           0.,          90.
*End Instance
**  
*Instance, name=Wire-lin-2-5, part=Wire
        1.35,         1.75,           0.
        1.35,         1.75,           0.,         1.35,         0.75,           0.,          90.
*End Instance
**  
*Instance, name=Wire-lin-2-6, part=Wire
        1.65,         1.75,           0.
        1.65,         1.75,           0.,         1.65,         0.75,           0.,          90.
*End Instance
**  
*Instance, name=Wire-lin-2-7, part=Wire
        1.95,         1.75,           0.
        1.95,         1.75,           0.,         1.95,         0.75,           0.,          90.
*End Instance
**  
*Instance, name=Wire-lin-2-8, part=Wire
        2.25,         1.75,           0.
        2.25,         1.75,           0.,         2.25,         0.75,           0.,          90.
*End Instance
**  
*Instance, name=Wire-lin-2-9, part=Wire
        2.55,         1.75,           0.
        2.55,         1.75,           0.,         2.55,         0.75,           0.,          90.
*End Instance
**  
*Instance, name=Wire-lin-2-10, part=Wire
        2.85,         1.75,           0.
        2.85,         1.75,           0.,         2.85,         0.75,           0.,          90.
*End Instance
**  
*Instance, name=Wire-lin-2-11, part=Wire
        3.15,         1.75,           0.
        3.15,         1.75,           0.,         3.15,         0.75,           0.,          90.
*End Instance
**  
*Instance, name=Wire-lin-2-12, part=Wire
        3.45,         1.75,           0.
        3.45,         1.75,           0.,         3.45,         0.75,           0.,          90.
*End Instance
**  
*Instance, name=Wire-lin-2-13, part=Wire
        3.75,         1.75,           0.
        3.75,         1.75,           0.,         3.75,         0.75,           0.,          90.
*End Instance
**  
*Instance, name=Wire-lin-2-14, part=Wire
        4.05,         1.75,           0.
        4.05,         1.75,           0.,         4.05,         0.75,           0.,          90.
*End Instance
**  
*Instance, name=Wire-lin-2-15, part=Wire
        4.35,         1.75,           0.
        4.35,         1.75,           0.,         4.35,         0.75,           0.,          90.
*End Instance
**  
*Instance, name=Wire-lin-2-16, part=Wire
        4.65,         1.75,           0.
        4.65,         1.75,           0.,         4.65,         0.75,           0.,          90.
*End Instance
**  
*Instance, name=Wire-lin-2-17, part=Wire
        4.95,         1.75,           0.
        4.95,         1.75,           0.,         4.95,         0.75,           0.,          90.
*End Instance
**  
*Instance, name=Wire-lin-2-18, part=Wire
        5.25,         1.75,           0.
        5.25,         1.75,           0.,         5.25,         0.75,           0.,          90.
*End Instance
**  
*Instance, name=Wire-lin-2-19, part=Wire
        5.55,         1.75,           0.
        5.55,         1.75,           0.,         5.55,         0.75,           0.,          90.
*End Instance
**  
*Instance, name=Wire-lin-2-20, part=Wire
        5.85,         1.75,           0.
        5.85,         1.75,           0.,         5.85,         0.75,           0.,          90.
*End Instance
**  
*Instance, name=Wire-lin-2-21, part=Wire
        6.15,         1.75,           0.
        6.15,         1.75,           0.,         6.15,         0.75,           0.,          90.
*End Instance
**  
*Instance, name=Wire-lin-2-22, part=Wire
        6.45,         1.75,           0.
        6.45,         1.75,           0.,         6.45,         0.75,           0.,          90.
*End Instance
**  
*Instance, name=Wire-lin-2-23, part=Wire
        6.75,         1.75,           0.
        6.75,         1.75,           0.,         6.75,         0.75,           0.,          90.
*End Instance
**  
*Instance, name=Wire-lin-2-24, part=Wire
        7.05,         1.75,           0.
        7.05,         1.75,           0.,         7.05,         0.75,           0.,          90.
*End Instance
**  
*Instance, name=Wire-lin-2-25, part=Wire
        7.35,         1.75,           0.
        7.35,         1.75,           0.,         7.35,         0.75,           0.,          90.
*End Instance
**  
*Nset, nset=FRPSampleSet, instance="FRP Sample", generate
   1,  946,    1
*Elset, elset=FRPSampleSet, instance="FRP Sample", generate
   1,  412,    1
*Nset, nset=LateralSymmetry, instance="FRP Sample"
   1,   2,   3,   4,   9,  10,  11,  12,  19,  20,  21,  22,  23,  24,  25,  26
  27,  28,  29,  30,  31,  32,  81,  82,  83,  84,  85,  86,  87,  88,  89,  90
  91,  92,  93,  94,  95,  96,  97,  98,  99, 100, 101, 102, 103, 104, 105, 106
 107, 108, 109, 110, 111, 112, 113, 114, 115, 116, 117, 118, 119, 120, 121, 122
 123, 124, 125, 126, 203, 204, 205, 206, 207, 208, 209, 210, 211, 212, 223, 224
 225, 226, 227, 228, 229, 230, 231, 232, 233, 234, 235, 236, 265, 266, 267, 268
 269, 270, 271, 272, 273, 274, 275, 276, 277, 278
*Elset, elset=LateralSymmetry, instance="FRP Sample"
   1,   2,   3,   4,   5,   6,   7,  71,  72,  73,  74,  75,  76,  77,  78,  79
  80,  81,  82,  83,  84,  85,  86,  87,  88,  89,  90,  91,  92,  93,  94, 245
 246, 247, 248, 249, 250, 372, 374, 376, 378, 380, 382, 384, 386, 388, 390, 392
 394, 396, 398, 400
*Nset, nset=LoadingSet, instance="FRP Sample"
  3,  6, 63, 64, 65, 66, 67, 68, 69, 70, 71
*Elset, elset=LoadingSet, instance="FRP Sample", generate
  7,  70,   7
*Nset, nset=LoadingTip, instance=LoadingTip
 1,
*Nset, nset=LongitudinalSymmetry, instance="FRP Sample"
  3,  4,  6,  7, 45, 46, 47, 48, 49, 50, 51, 52, 53, 63, 64, 65
 66, 67, 68, 69, 70, 71
*Elset, elset=LongitudinalSymmetry, instance="FRP Sample", generate
  7,  70,   7
*Nset, nset=SupportsSet, instance="FRP Sample"
  11,  14, 183, 184, 185, 186, 187
*Elset, elset=SupportsSet, instance="FRP Sample"
  94, 118, 142, 166, 190, 214, 215, 221, 227, 233, 239, 245
*Nset, nset=WiresSet, instance=Wire, generate
   1,  177,    1
*Nset, nset=WiresSet, instance=Wire-lin-1-2, generate
   1,  177,    1
*Nset, nset=WiresSet, instance=Wire-lin-1-3, generate
   1,  177,    1
*Nset, nset=WiresSet, instance=Wire-lin-1-4, generate
   1,  177,    1
*Nset, nset=WiresSet, instance=Wire-lin-1-5, generate
   1,  177,    1
*Nset, nset=WiresSet, instance=Wire-lin-1-6, generate
   1,  177,    1
*Nset, nset=WiresSet, instance=Wire-lin-1-7, generate
   1,  177,    1
*Nset, nset=WiresSet, instance=Wire-lin-1-8, generate
   1,  177,    1
*Nset, nset=WiresSet, instance=Wire-lin-1-9, generate
   1,  177,    1
*Nset, nset=WiresSet, instance=Wire-lin-1-10, generate
   1,  177,    1
*Nset, nset=WiresSet, instance=Wire-lin-1-11, generate
   1,  177,    1
*Nset, nset=WiresSet, instance=Wire-lin-1-12, generate
   1,  177,    1
*Nset, nset=WiresSet, instance=Wire-lin-1-13, generate
   1,  177,    1
*Nset, nset=WiresSet, instance=Wire-lin-1-14, generate
   1,  177,    1
*Nset, nset=WiresSet, instance=Wire-lin-1-15, generate
   1,  177,    1
*Nset, nset=WiresSet, instance=Wire-lin-1-16, generate
   1,  177,    1
*Nset, nset=WiresSet, instance=Wire-lin-1-17, generate
   1,  177,    1
*Nset, nset=WiresSet, instance=Wire-lin-1-18, generate
   1,  177,    1
*Nset, nset=WiresSet, instance=Wire-lin-1-19, generate
   1,  177,    1
*Nset, nset=WiresSet, instance=Wire-lin-1-20, generate
   1,  177,    1
*Nset, nset=WiresSet, instance=Wire-lin-1-21, generate
   1,  177,    1
*Nset, nset=WiresSet, instance=Wire-lin-1-22, generate
   1,  177,    1
*Nset, nset=WiresSet, instance=Wire-lin-1-23, generate
   1,  177,    1
*Nset, nset=WiresSet, instance=Wire-lin-1-24, generate
   1,  177,    1
*Nset, nset=WiresSet, instance=Wire-lin-1-25, generate
   1,  177,    1
*Nset, nset=WiresSet, instance=Wire-lin-2-1, generate
   1,  177,    1
*Nset, nset=WiresSet, instance=Wire-lin-2-2, generate
   1,  177,    1
*Nset, nset=WiresSet, instance=Wire-lin-2-3, generate
   1,  177,    1
*Nset, nset=WiresSet, instance=Wire-lin-2-4, generate
   1,  177,    1
*Nset, nset=WiresSet, instance=Wire-lin-2-5, generate
   1,  177,    1
*Nset, nset=WiresSet, instance=Wire-lin-2-6, generate
   1,  177,    1
*Nset, nset=WiresSet, instance=Wire-lin-2-7, generate
   1,  177,    1
*Nset, nset=WiresSet, instance=Wire-lin-2-8, generate
   1,  177,    1
*Nset, nset=WiresSet, instance=Wire-lin-2-9, generate
   1,  177,    1
*Nset, nset=WiresSet, instance=Wire-lin-2-10, generate
   1,  177,    1
*Nset, nset=WiresSet, instance=Wire-lin-2-11, generate
   1,  177,    1
*Nset, nset=WiresSet, instance=Wire-lin-2-12, generate
   1,  177,    1
*Nset, nset=WiresSet, instance=Wire-lin-2-13, generate
   1,  177,    1
*Nset, nset=WiresSet, instance=Wire-lin-2-14, generate
   1,  177,    1
*Nset, nset=WiresSet, instance=Wire-lin-2-15, generate
   1,  177,    1
*Nset, nset=WiresSet, instance=Wire-lin-2-16, generate
   1,  177,    1
*Nset, nset=WiresSet, instance=Wire-lin-2-17, generate
   1,  177,    1
*Nset, nset=WiresSet, instance=Wire-lin-2-18, generate
   1,  177,    1
*Nset, nset=WiresSet, instance=Wire-lin-2-19, generate
   1,  177,    1
*Nset, nset=WiresSet, instance=Wire-lin-2-20, generate
   1,  177,    1
*Nset, nset=WiresSet, instance=Wire-lin-2-21, generate
   1,  177,    1
*Nset, nset=WiresSet, instance=Wire-lin-2-22, generate
   1,  177,    1
*Nset, nset=WiresSet, instance=Wire-lin-2-23, generate
   1,  177,    1
*Nset, nset=WiresSet, instance=Wire-lin-2-24, generate
   1,  177,    1
*Nset, nset=WiresSet, instance=Wire-lin-2-25, generate
   1,  177,    1
*Elset, elset=WiresSet, instance=Wire, generate
   1,  176,    1
*Elset, elset=WiresSet, instance=Wire-lin-1-2, generate
   1,  176,    1
*Elset, elset=WiresSet, instance=Wire-lin-1-3, generate
   1,  176,    1
*Elset, elset=WiresSet, instance=Wire-lin-1-4, generate
   1,  176,    1
*Elset, elset=WiresSet, instance=Wire-lin-1-5, generate
   1,  176,    1
*Elset, elset=WiresSet, instance=Wire-lin-1-6, generate
   1,  176,    1
*Elset, elset=WiresSet, instance=Wire-lin-1-7, generate
   1,  176,    1
*Elset, elset=WiresSet, instance=Wire-lin-1-8, generate
   1,  176,    1
*Elset, elset=WiresSet, instance=Wire-lin-1-9, generate
   1,  176,    1
*Elset, elset=WiresSet, instance=Wire-lin-1-10, generate
   1,  176,    1
*Elset, elset=WiresSet, instance=Wire-lin-1-11, generate
   1,  176,    1
*Elset, elset=WiresSet, instance=Wire-lin-1-12, generate
   1,  176,    1
*Elset, elset=WiresSet, instance=Wire-lin-1-13, generate
   1,  176,    1
*Elset, elset=WiresSet, instance=Wire-lin-1-14, generate
   1,  176,    1
*Elset, elset=WiresSet, instance=Wire-lin-1-15, generate
   1,  176,    1
*Elset, elset=WiresSet, instance=Wire-lin-1-16, generate
   1,  176,    1
*Elset, elset=WiresSet, instance=Wire-lin-1-17, generate
   1,  176,    1
*Elset, elset=WiresSet, instance=Wire-lin-1-18, generate
   1,  176,    1
*Elset, elset=WiresSet, instance=Wire-lin-1-19, generate
   1,  176,    1
*Elset, elset=WiresSet, instance=Wire-lin-1-20, generate
   1,  176,    1
*Elset, elset=WiresSet, instance=Wire-lin-1-21, generate
   1,  176,    1
*Elset, elset=WiresSet, instance=Wire-lin-1-22, generate
   1,  176,    1
*Elset, elset=WiresSet, instance=Wire-lin-1-23, generate
   1,  176,    1
*Elset, elset=WiresSet, instance=Wire-lin-1-24, generate
   1,  176,    1
*Elset, elset=WiresSet, instance=Wire-lin-1-25, generate
   1,  176,    1
*Elset, elset=WiresSet, instance=Wire-lin-2-1, generate
   1,  176,    1
*Elset, elset=WiresSet, instance=Wire-lin-2-2, generate
   1,  176,    1
*Elset, elset=WiresSet, instance=Wire-lin-2-3, generate
   1,  176,    1
*Elset, elset=WiresSet, instance=Wire-lin-2-4, generate
   1,  176,    1
*Elset, elset=WiresSet, instance=Wire-lin-2-5, generate
   1,  176,    1
*Elset, elset=WiresSet, instance=Wire-lin-2-6, generate
   1,  176,    1
*Elset, elset=WiresSet, instance=Wire-lin-2-7, generate
   1,  176,    1
*Elset, elset=WiresSet, instance=Wire-lin-2-8, generate
   1,  176,    1
*Elset, elset=WiresSet, instance=Wire-lin-2-9, generate
   1,  176,    1
*Elset, elset=WiresSet, instance=Wire-lin-2-10, generate
   1,  176,    1
*Elset, elset=WiresSet, instance=Wire-lin-2-11, generate
   1,  176,    1
*Elset, elset=WiresSet, instance=Wire-lin-2-12, generate
   1,  176,    1
*Elset, elset=WiresSet, instance=Wire-lin-2-13, generate
   1,  176,    1
*Elset, elset=WiresSet, instance=Wire-lin-2-14, generate
   1,  176,    1
*Elset, elset=WiresSet, instance=Wire-lin-2-15, generate
   1,  176,    1
*Elset, elset=WiresSet, instance=Wire-lin-2-16, generate
   1,  176,    1
*Elset, elset=WiresSet, instance=Wire-lin-2-17, generate
   1,  176,    1
*Elset, elset=WiresSet, instance=Wire-lin-2-18, generate
   1,  176,    1
*Elset, elset=WiresSet, instance=Wire-lin-2-19, generate
   1,  176,    1
*Elset, elset=WiresSet, instance=Wire-lin-2-20, generate
   1,  176,    1
*Elset, elset=WiresSet, instance=Wire-lin-2-21, generate
   1,  176,    1
*Elset, elset=WiresSet, instance=Wire-lin-2-22, generate
   1,  176,    1
*Elset, elset=WiresSet, instance=Wire-lin-2-23, generate
   1,  176,    1
*Elset, elset=WiresSet, instance=Wire-lin-2-24, generate
   1,  176,    1
*Elset, elset=WiresSet, instance=Wire-lin-2-25, generate
   1,  176,    1
*Elset, elset=_FRPSupportSurface_S5, internal, instance="FRP Sample"
   1,   2,   3,   4,   5,   6,   7,  71,  72,  73,  74,  75,  76,  77,  78,  79
  80,  81,  82,  83,  84,  85,  86,  87,  88,  89,  90,  91,  92,  93,  94, 215
 216, 217, 218, 219, 220, 251, 252, 281, 282, 283, 284, 285, 286, 371, 372
*Elset, elset=_FRPSupportSurface_S1, internal, instance="FRP Sample", generate
   1,  412,    1
*Elset, elset=_FRPSupportSurface_S2, internal, instance="FRP Sample", generate
   1,  412,    1
*Elset, elset=_FRPSupportSurface_S4, internal, instance="FRP Sample"
   7,  14,  21,  28,  35,  42,  49,  56,  63,  70,  71,  95, 119, 143, 167, 191
 220, 226, 232, 238, 244, 250, 251, 253, 255, 257, 259, 261, 263, 265, 267, 269
 271, 273, 275, 277, 279
*Elset, elset=_FRPSupportSurface_S3, internal, instance="FRP Sample"
  64,  65,  66,  67,  68,  69,  70, 191, 192, 193, 194, 195, 196, 197, 198, 199
 200, 201, 202, 203, 204, 205, 206, 207, 208, 209, 210, 211, 212, 213, 214, 245
 246, 247, 248, 249, 250
*Elset, elset=_FRPSupportSurface_S6, internal, instance="FRP Sample"
 215, 221, 227, 233, 239, 245, 372, 374, 376, 378, 380, 382, 384, 386, 388, 390
 392, 394, 396, 398, 400
*Surface, type=ELEMENT, name=FRPSupportSurface
_FRPSupportSurface_S5, S5
_FRPSupportSurface_S1, S1
_FRPSupportSurface_S2, S2
_FRPSupportSurface_S4, S4
_FRPSupportSurface_S6, S6
_FRPSupportSurface_S3, S3
** Constraint: FRP_SMA_bond
*Embedded Element, host elset=FRPSampleSet
WiresSet
*End Assembly
** 
** ELEMENT CONTROLS
** 
*Section Controls, name=EC-1, second order accuracy=YES
1., 1., 1.
*Amplitude, name=LinearIncrease
             0.,              0.,              1.,              1.
** 
** MATERIALS
** 
*Material, name=FRP
*Damage Initiation, criterion=HASHIN, alpha=1.
 535.8, 291.98,  535.8, 291.98,    70., 145.99
*Damage Evolution, type=ENERGY
 27.5,  10., 27.5,  10.
*Damage Stabilization
1e-07,1e-07,1e-07,1e-07
*Density
 1.28e-09,
*Elastic, type=LAMINA
32776.,32776.,   0.3, 5100., 2000., 2000.
*Material, name=NiTiCo
*SUPERELASTIC
20334.,   0.33, 0.0154,   858.,   887.,   660.,   645.,   810.
     0.,
*SUPERELASTIC HARDENING
 896., 0.0625
1146., 0.0875
1381., 0.1125
1753., 0.1375
2046., 0.1625
*Density
 6.45e-09,
*Elastic
34197., 0.33
*Expansion
1.,
** 
** INTERACTION PROPERTIES
** 
*Surface Interaction, name=RigidBodyContact
1.,
*Friction
0.,
*Surface Behavior, pressure-overclosure=HARD
** 
** BOUNDARY CONDITIONS
** 
** Name: BCLoadingTip Type: Displacement/Rotation
*Boundary
LoadingTip, 1, 1
LoadingTip, 2, 2
LoadingTip, 3, 3
LoadingTip, 4, 4
LoadingTip, 5, 5
LoadingTip, 6, 6
** Name: BCSupports Type: Displacement/Rotation
*Boundary
SupportsSet, 2, 2
** Name: LateralSymmetry Type: Symmetry/Antisymmetry/Encastre
*Boundary
LateralSymmetry, XSYMM
** Name: LongitudinalSymmetry Type: Symmetry/Antisymmetry/Encastre
*Boundary
LongitudinalSymmetry, ZSYMM
** 
** PREDEFINED FIELDS
** 
** Name: PrestrainTemperature   Type: Temperature
*Initial Conditions, type=TEMPERATURE
WiresSet, 0.
** 
** INTERACTIONS
** 
** Interaction: LoadingTipContact
*Contact Pair, interaction=RigidBodyContact, type=SURFACE TO SURFACE, tracking=STATE
FRPSupportSurface, LoadingTip.SupportTipSurface
** ----------------------------------------------------------------
** 
** STEP: WirePrestrain
** 
*Step, name=WirePrestrain, nlgeom=YES, inc=1000000
*Static
0.001, 1., 1e-06, 0.1
** 
** PREDEFINED FIELDS
** 
** Name: PrestrainTemperature   Type: Temperature
*Temperature
WiresSet, -0.04
** 
** OUTPUT REQUESTS
** 
*Restart, write, frequency=0
*Output, field, frequency=0
*Output, history, frequency=0
*End Step
** ----------------------------------------------------------------
** 
** STEP: BendingTest
** 
*Step, name=BendingTest, nlgeom=YES, inc=10000000
*Static
0.0001, 1., 1e-07, 0.01
** 
** BOUNDARY CONDITIONS
** 
** Name: BCLoadingTip Type: Displacement/Rotation
*Boundary, amplitude=LinearIncrease
LoadingTip, 1, 1
LoadingTip, 2, 2, -20.
LoadingTip, 3, 3
LoadingTip, 4, 4
LoadingTip, 5, 5
LoadingTip, 6, 6
** 
** OUTPUT REQUESTS
** 
*Restart, write, frequency=0
** 
** FIELD OUTPUT: DefaultFieldOutput
** 
*Output, field
*Node Output
RF, U
*Element Output, directions=YES
LE, PE, S, PEEQ
** 
** FIELD OUTPUT: FRPFieldOutput
** 
*Node Output, nset=FRPSampleSet
CF, 
*Element Output, elset=FRPSampleSet, directions=YES
DAMAGEFC, DAMAGEFT, DAMAGEMC, DAMAGEMT, DAMAGESHR
*Contact Output, nset=FRPSampleSet
CSTRESS, 
** 
** HISTORY OUTPUT: ForceDisplacement
** 
*Output, history
*Node Output, nset=LoadingTip
RF2, U2
*End Step
